#comment
1.0
16.184 0.0 0.0 
0.0 16.184 0.0 
0.0 0.0 16.184 
Al Mg Zn 
235 10 10 
selective
Direct
0.9991781073651104 0.9989382707309711 0.5004204820884252 F F F
0.1382345996412986 0.1325561191535818 0.9905852192702379 F F F
0.1358758298988437 0.9879960550633811 0.1274049279405593 F F F
0.8736973076647674 0.7477011318507103 0.8742694806320733 F F F
0.2542278361174887 0.9972855553445497 0.9978878925027933 F F F
0.3785228956666710 0.1257285943906839 0.9986787464880835 F F F
0.3778209853842753 0.9979213789669714 0.1251178288074956 F F F
0.8749704437608928 0.8745669941851165 0.7504463811294466 F F F
0.5002209252260867 0.9989817208536699 0.9993877796216799 F F F
0.6211425258232917 0.1265848245408982 0.9980473926979904 F F F
0.6230732016956022 0.9982739982243513 0.1258351742971500 F F F
0.5002770140073660 0.1255782800681514 0.1257081919919466 F F F
0.7411393077682457 0.9977455594179330 0.9969844175913870 F F F
0.7489330883751281 0.7487121230419937 0.7489576821934637 F F F
0.5000863242777691 0.8736272342531393 0.8737262514744567 F F F
0.6246324083273280 0.7489918449902349 0.8739866580540434 F F F
0.9993079679426787 0.2502013591295444 0.0013601046575302 F F F
0.1251720281473785 0.3773402822787095 0.9994333077987611 F F F
0.1233468264802511 0.2541003493697627 0.1222903214863527 F F F
0.9989503160622533 0.3777373306402137 0.1242513116185543 F F F
0.2542148232568589 0.2550926600747773 0.9980315234801538 F F F
0.3765878691707559 0.3776333040380992 0.9999610410422194 F F F
0.3772334885330321 0.2525493417217248 0.1253958463392608 F F F
0.2505359776920962 0.3759808173697331 0.1254950377405032 F F F
0.4998559235404224 0.2520157295560613 0.9995247382494153 F F F
0.6232316770333919 0.3774393467632504 0.9998291256671410 F F F
0.6224691131138163 0.2533489516985126 0.1252764109458750 F F F
0.4997917779099321 0.3766926430200236 0.1259808470004006 F F F
0.7466271890640201 0.2554979823940370 0.9976609959120381 F F F
0.8742164418518342 0.3762035486111213 0.9996807120025925 F F F
0.6246289671517568 0.8739559164063944 0.7488927858782610 F F F
0.7499152224044955 0.3749375222054460 0.1251367168336224 F F F
0.9997690543814812 0.5005773359502746 0.9998324440950471 F F F
0.1260125238562244 0.6243246113564476 0.9996468927380423 F F F
0.1256234157147277 0.5008738487399110 0.1255602606174653 F F F
0.9997012340256599 0.6237738192999238 0.1259692041031484 F F F
0.2505051052388494 0.5003718392649636 0.9999268804434122 F F F
0.3750606841166375 0.6245903758107954 0.9993290930456257 F F F
0.3751488030640735 0.5006167060531710 0.1255614565001885 F F F
0.2508214642469603 0.6249705696649314 0.1249614811586971 F F F
0.4995885215253899 0.5007977440126773 0.9997477654721537 F F F
0.6239232639073633 0.6237574740986903 0.9995426238610607 F F F
0.6247479085939952 0.5002109458661543 0.1257787813532235 F F F
0.4996080351788740 0.6237477338376669 0.1255032492114487 F F F
0.7493805293080765 0.4998636653996887 0.0000101990328690 F F F
0.8736655192225261 0.6237277423562776 0.0000831245010041 F F F
0.8737799145927346 0.5004848077519173 0.1253785401803075 F F F
0.7493262747326134 0.6244621745377091 0.1252803956770195 F F F
0.0008089667065764 0.7454049704388319 0.0019718039868651 F F F
0.5001869444092476 0.7492735603376387 0.7489762039506012 F F F
0.1262301751445384 0.7484266154163702 0.1256230140442561 F F F
0.0018769021076650 0.8738481424554255 0.1181403598203891 F F F
0.2500409897518948 0.7495458979352924 0.9985328695053265 F F F
0.3767192325184311 0.8729893595935341 0.9992268898725502 F F F
0.3762931470221623 0.7476501966563246 0.1248323418880200 F F F
0.2551663343071213 0.8702174906233204 0.1253416311453690 F F F
0.4996625756642251 0.7482931331224524 0.9994609712081780 F F F
0.6220721731179598 0.8720263148507064 0.9990134322285223 F F F
0.6229947849992615 0.7469332496130491 0.1253358413667651 F F F
0.5000440881672530 0.8732667682078699 0.1254432473797490 F F F
0.7478849606982917 0.7470844306720209 0.9992111685877317 F F F
0.8695638859282573 0.8675712707164164 0.0003811316701829 F F F
0.8744297949068321 0.7477317872328443 0.1263217049804054 F F F
0.7437042974312140 0.8683561846142129 0.1257389357292543 F F F
0.0008388291185633 0.9892569329059291 0.2485414350561926 F F F
0.3755444823366600 0.7490724166883330 0.8743557183203583 F F F
0.1245719858650512 0.9983895016195201 0.3760478780422315 F F F
0.9999450944083362 0.1249485776445679 0.3795381751264408 F F F
0.2523914634292946 0.9971511000429916 0.2528795377084294 F F F
0.3768554477322881 0.1257205849731160 0.2521285255032392 F F F
0.3761681278866025 0.9998533774274905 0.3764852719876466 F F F
0.2490995754726006 0.1252187356645886 0.3742745836881769 F F F
0.5001320175634845 0.9994854172281753 0.2513294595361999 F F F
0.6233204622083209 0.1261724800937037 0.2522361160249076 F F F
0.6241937829943131 0.9997257113082709 0.3767638678281549 F F F
0.5000946212834010 0.1258541504885031 0.3762421772495289 F F F
0.7465277069687273 0.9982209105598552 0.2539906896653117 F F F
0.3755842234698351 0.8734495896324355 0.7491972099160888 F F F
0.8751062109548106 0.9986642533193650 0.3764721160948064 F F F
0.7506370070034404 0.1258323941554462 0.3751474580924145 F F F
0.0002277966096013 0.2587333973679421 0.2504685809257048 F F F
0.1262793302855981 0.3775670405090507 0.2504615320183325 F F F
0.1252976137045098 0.2516190649617576 0.3765307269442064 F F F
0.9999220820453778 0.3766874366740762 0.3767756922562547 F F F
0.2506238875625305 0.2528542482105009 0.2515996312128686 F F F
0.3753399635065711 0.3761348225675517 0.2508648717388007 F F F
0.3750287759023656 0.2510483758988345 0.3759028984966685 F F F
0.2506914500683612 0.3763215368958305 0.3761345126909209 F F F
0.4999885946116116 0.2515477002127417 0.2513525495728499 F F F
0.6248974005563637 0.3759871753496700 0.2506241455929354 F F F
0.6246041145820016 0.2513146026456976 0.3760710687698796 F F F
0.4997222857220135 0.3753287941012496 0.3753915837482020 F F F
0.7492440173004333 0.2533023326999725 0.2522858783986703 F F F
0.8733922280130672 0.3769493621881059 0.2507917305524702 F F F
0.8746638119383267 0.2515448579619627 0.3771559392416625 F F F
0.7490972550180045 0.3763579881055400 0.3762351007522111 F F F
0.9996553968877110 0.5000522513513994 0.2510726775428012 F F F
0.1254576948479927 0.6243789013952955 0.2507552467972778 F F F
0.1255877010891785 0.5002079521833582 0.3759842651860044 F F F
0.9997654399544492 0.6248459777033133 0.3756848978291863 F F F
0.2510547217624943 0.5008201165731088 0.2506127708914099 F F F
0.3755493923025521 0.6247986557316829 0.2506306655518952 F F F
0.3749534829951205 0.5001635709200649 0.3756662409211554 F F F
0.2509377818675713 0.6247046955086274 0.3760095609005268 F F F
0.4998324980827177 0.5001017429315457 0.2511728159937547 F F F
0.6244143232355581 0.6244543821469689 0.2506915332655387 F F F
0.6244621809779537 0.5001471186908866 0.3757076312307153 F F F
0.4998774082715979 0.6251023877751605 0.3759325775418588 F F F
0.7488350786501192 0.5003475231406203 0.2507757502099860 F F F
0.8741403047376769 0.6241184448354683 0.2512171224209260 F F F
0.8741336384310385 0.5000647547269911 0.3762106238139613 F F F
0.7490837596088262 0.6244509255455823 0.3762736724990975 F F F
0.0002100199452037 0.7491830672009508 0.2492584674477981 F F F
0.2521020156674941 0.7481304180217347 0.7496381042787068 F F F
0.1254202288384847 0.7488175228298725 0.3753252814360285 F F F
0.0000653458098866 0.8725622771598923 0.3768460856226606 F F F
0.2512037423490018 0.7482287354000240 0.2506182310701972 F F F
0.3763222551033789 0.8734069873332576 0.2512389732552404 F F F
0.3751585628799097 0.7492094844219270 0.3754951732471390 F F F
0.2501665893943538 0.8733232056983071 0.3754077613723902 F F F
0.4998492172683678 0.7484036603946159 0.2506061025381658 F F F
0.6235477295633878 0.8732277830899186 0.2513881166423824 F F F
0.6247393586531628 0.7490673002017584 0.3757174131239936 F F F
0.5001300239520848 0.8739836172189200 0.3757129027891866 F F F
0.7483831903084484 0.7473043606175547 0.2512583379331144 F F F
0.8735183440303658 0.8694028346845030 0.2528523797419535 F F F
0.8744517326312823 0.7482877040345175 0.3765059133220565 F F F
0.7492960280057724 0.8731368328218942 0.3765221477205453 F F F
0.7482227661147933 0.8736675306568896 0.8730310587875491 F F F
0.1252071675173448 0.1251231813203429 0.5007214942195777 F F F
0.1252249013403091 0.9996202420715724 0.6218694299139889 F F F
0.9980608911041550 0.1248028999983752 0.6247542888407190 F F F
0.2506521317773193 0.9997249155639729 0.4990899043773697 F F F
0.3747532388235018 0.1259227211509786 0.4996143553951486 F F F
0.3762814096102128 0.9994975781394764 0.6234211905573876 F F F
0.2511681516041829 0.1253005368847906 0.6240013118686247 F F F
0.5001540459124806 0.9998640983264734 0.5000742069911412 F F F
0.6257112761471089 0.1255508984572146 0.4998152137484125 F F F
0.6252176137638003 0.9993447754813000 0.6242317997427147 F F F
0.5005182034713256 0.1257848150972257 0.6232876055660381 F F F
0.7499695442150238 0.9996404797761829 0.5002356554380714 F F F
0.8738021855717977 0.1250569835735442 0.5012059347145935 F F F
0.8737055554841248 0.9997899862469577 0.6258348989595566 F F F
0.7496728169116890 0.1254893331924819 0.6251151780474719 F F F
0.9995292419467444 0.2506593797799297 0.5012231362172493 F F F
0.1253056691529444 0.3754664502576610 0.5003942131246752 F F F
0.1247566505107189 0.2507007044418456 0.6248898899707830 F F F
0.9995908924354178 0.3757106796499374 0.6248451921282058 F F F
0.2501728325328443 0.2506843803274891 0.5001671686493535 F F F
0.3752261628948679 0.3755141537428829 0.4999428539640675 F F F
0.3754128109242277 0.2513159181777432 0.6240760918181049 F F F
0.2503674701654827 0.3758666609609220 0.6243582048365964 F F F
0.5000254313937799 0.2509910441824701 0.4999244236953233 F F F
0.6246825635443904 0.3755705820706218 0.4998589970550638 F F F
0.6246901693811198 0.2513106628641628 0.6240112927100518 F F F
0.4999830470639449 0.3757785882007942 0.6242529516244869 F F F
0.7496170483019040 0.2507899771447525 0.5005059109425393 F F F
0.8741539520841007 0.3754781047245509 0.5004022202466194 F F F
0.8740416379980950 0.2504426597804138 0.6253343882406699 F F F
0.7490778862130747 0.3756232010571621 0.6243530926976893 F F F
0.9998542208352453 0.5003185257774506 0.5006540480332429 F F F
0.1256354867404939 0.6247913949766445 0.5004661701618129 F F F
0.1255163289276806 0.5005106862585080 0.6246739941155801 F F F
0.9998146746095393 0.6248132088343056 0.6252079632145473 F F F
0.2506201416616383 0.5000631590498895 0.5002761049869004 F F F
0.3752335385389186 0.6249503990851082 0.5001657915179927 F F F
0.3749573182564294 0.4999117754668419 0.6244773980424594 F F F
0.2510240616412521 0.6248965139310942 0.6245628947972618 F F F
0.4998971159903056 0.5000461997924212 0.5000300800066599 F F F
0.6248522954714912 0.6249699298034697 0.5000439718249163 F F F
0.6246454233341537 0.5000612390613209 0.6244225976946067 F F F
0.5001551494161276 0.6249844176514971 0.6243668841583038 F F F
0.7490945758753240 0.4999528011956240 0.5003752422348000 F F F
0.8739431108382441 0.6245610278339054 0.5009362575327094 F F F
0.8739787037660789 0.5001549968266276 0.6248134652122367 F F F
0.7490019829449399 0.6251112982829289 0.6245515863510178 F F F
0.9996868878535289 0.7490043034362375 0.5005298596410546 F F F
0.1253748140761577 0.8738780373968505 0.4999330252213464 F F F
0.1257607085469315 0.7489334652588747 0.6241629081017154 F F F
0.9989566289191888 0.8739936796079628 0.6241365548983459 F F F
0.2508796931507333 0.7492114740278000 0.4998010808582606 F F F
0.3756354663067700 0.8737337320412468 0.4995840752076978 F F F
0.3756681814868577 0.7491232071388082 0.6242830914025879 F F F
0.2517238860161078 0.8742441276224923 0.6233562185320565 F F F
0.4999967597276056 0.7492179658138490 0.4997866314771996 F F F
0.6247405181777076 0.8738597291337584 0.5000762207206904 F F F
0.6246215599882623 0.7493254516198163 0.6242029548419969 F F F
0.5000821811557203 0.8737627587511103 0.6240813627610524 F F F
0.7496476466766009 0.7494184837042855 0.5004851806364519 F F F
0.8743960414056976 0.8743060053843369 0.5004980730428317 F F F
0.8741642833314569 0.7494900178524593 0.6251713969943895 F F F
0.7498207831243249 0.8743409598324819 0.6249212611991046 F F F
0.9994954538802883 0.7482591660320814 0.7505348749408062 F F F
0.7489633568037953 0.6242315361762935 0.8740730973689070 F F F
0.8743850150365929 0.5000006568512840 0.8746233433916655 F F F
0.8741465723996280 0.6242521127117255 0.7492582342966523 F F F
0.2553068405747080 0.9998134396224669 0.7498326845693155 F F F
0.3774794176606340 0.1260242255267959 0.7473699009801673 F F F
0.3780703054959618 0.9989103039793843 0.8742441382864643 F F F
0.2576599793062923 0.1258476739600820 0.8724590656907356 F F F
0.5000744370084980 0.9992322201935597 0.7479931583046664 F F F
0.6239011187642316 0.1255170506295214 0.7481098659022013 F F F
0.6226592124003919 0.9995360681016513 0.8728253007290896 F F F
0.5001950851738953 0.1255921693010845 0.8731503780837458 F F F
0.7494021622016838 0.0005738931516393 0.7500938898404123 F F F
0.7487962493307012 0.5003577003799785 0.7490058881517769 F F F
0.4998082654043709 0.6247303643279901 0.8736467188703839 F F F
0.7455172249840183 0.1273323911234653 0.8733518301860214 F F F
0.9982899410984951 0.2516110782947132 0.7503705309068499 F F F
0.1250210043032470 0.3766267722926345 0.7488966513685440 F F F
0.1258889282184164 0.2559758596848987 0.8733031052030038 F F F
0.9990312689958474 0.3760875647882544 0.8758540150609655 F F F
0.2512719871325178 0.2516951845203920 0.7490174083968265 F F F
0.3751096402940648 0.3758690016432703 0.7490170668071818 F F F
0.3770172182555215 0.2521808998238639 0.8734560142486936 F F F
0.2512517576893130 0.3773755459790153 0.8737966783082071 F F F
0.5003679342211647 0.2516696175696401 0.7484757868274788 F F F
0.6249338280404656 0.3756430586701457 0.7493269328484040 F F F
0.6237845442093943 0.2520211563388102 0.8737748325607960 F F F
0.4999580420654118 0.3765506968053891 0.8739209359909710 F F F
0.7490783135299153 0.2513920766715159 0.7490666902515988 F F F
0.8742843620300734 0.3762666424128640 0.7494518090587582 F F F
0.8741977764158773 0.2513775335978758 0.8729173446672539 F F F
0.7491602769907656 0.3765905237094080 0.8738380138522790 F F F
0.9999109194910891 0.5001333777810221 0.7499802328302623 F F F
0.1256314917050404 0.6253131605689284 0.7498160186298978 F F F
0.1251342976239755 0.5002367804066045 0.8743263242996507 F F F
0.9997981340077451 0.6243876186244716 0.8748348668232858 F F F
0.2506440986062733 0.5007150245255969 0.7490161237830018 F F F
0.3755283213790298 0.6247876757636803 0.7492301882065260 F F F
0.3755538406287584 0.5005129059434335 0.8738996711297943 F F F
0.2505557784713724 0.6247031156227353 0.8743369119693284 F F F
0.4999360672255090 0.5000175633481542 0.7487020727814815 F F F
0.6245502182574251 0.6249483442559381 0.7492427183349575 F F F
0.6242816862343397 0.5001049829430364 0.8739546133856294 F F F
0.8780390034495652 0.0071339433395766 0.8825780628947077 F F F
0.0013913469645799 0.0642485184370989 0.0552470661829491 T T T
0.2523099199735198 0.1255119064745483 0.1248544834177353 F F F
0.8648928690984498 0.9904875862685748 0.1240325399171580 F F F
0.1231536557190319 0.1211147922832416 0.7537995889392194 F F F
0.7473964504811550 0.1286670067259844 0.1242994179147167 F F F
0.1268426188346154 0.8775065653152074 0.7526281945889138 F F F
0.1146454184960705 0.1240249213634214 0.2435498617972245 F F F
0.0032160481317111 0.8778442752801943 0.8842401258548030 F F F
0.8848902142502788 0.1261283360029104 0.2449301173084397 F F F
0.1261832490064699 0.7475630976700196 0.8752873335847278 F F F
0.2533764652946164 0.8731131427328357 0.8752602165779773 F F F
0.1300116103330041 0.8742392168092209 0.0008560628709303 F F F
0.8771833080463073 0.2533726012282402 0.1238058406698617 F F F
0.1259902323643361 0.8700663571455810 0.2514414015730876 F F F
0.1277436966357175 0.0015333734581954 0.8821095055354528 F F F
0.8636764204455341 0.1360190682011368 0.9977532992967728 F F F
0.0022257507664643 0.1296996004797060 0.8807126755125758 F F F
0.8748758792938889 0.1263637601696981 0.7496216282948278 F F F
0.9967911849955464 0.9992728319839908 0.7497216999618680 F F F
