#comment
1.0
16.184 0.0 0.0 
0.0 16.184 0.0 
0.0 0.0 16.184 
Al Mg Zn 
237 10 8 
selective
Direct
0.0007467028906510 0.0002282846183769 0.4985374665685586 F F F
0.3772650156693623 0.7474626949513860 0.8742568238084026 F F F
0.1230911671015698 0.9970231676501700 0.1252252979973079 F F F
0.9997792233380655 0.1278153296047800 0.1237196607460396 F F F
0.2562114333429760 0.9996612175995239 0.0035721266151710 F F F
0.3762558621765930 0.1269343771472143 0.0002719579960774 F F F
0.3768511400593092 0.0009558104435532 0.1267095427612718 F F F
0.8735177469047555 0.7464904544841026 0.8752058141056105 F F F
0.4997499273904856 0.0006424457692997 0.0001279130158483 F F F
0.6227026322986770 0.1264622506339663 0.0003308472032590 F F F
0.6225595572095608 0.0004514292425912 0.1255370682831210 F F F
0.5000328245721126 0.1262794735381424 0.1256579281417626 F F F
0.3772906123022460 0.8742164202540090 0.7477335316742056 F F F
0.8602697858062910 0.1357280773002886 0.0013508875273254 F F F
0.2511911510606099 0.7470262646502884 0.7477587474798085 F F F
0.7462206640434483 0.1275913925574791 0.1277855046173475 F F F
0.9980458849221140 0.2486490309945881 0.9963836546429234 F F F
0.1254672510266274 0.3766341499353301 0.9985342698323638 F F F
0.1240105124640975 0.7467860228310297 0.8754241279027279 F F F
0.9987262043664451 0.3769261812008404 0.1249379873735517 F F F
0.2548834037011853 0.2549486185076675 0.9984776351500105 F F F
0.3767262556704197 0.3768259299089975 0.9997577198374080 F F F
0.3754945407277461 0.2512362066631190 0.1260714552519307 F F F
0.2527866511460353 0.3781638274022729 0.1260804494932441 F F F
0.4999218507583831 0.2511662276239856 0.0002894874598626 F F F
0.6231126496839733 0.3768138984149953 0.0000941266663662 F F F
0.6236584147045334 0.2512076866169991 0.1261599412134186 F F F
0.4998040004431085 0.3754959906453966 0.1258977343767303 F F F
0.7446769572160498 0.2552870299586980 0.0006774886162390 F F F
0.8739453859505436 0.3760371897291248 0.0005437330730818 F F F
0.8741369010486033 0.2525834751134173 0.1271861993680926 F F F
0.7483828320641892 0.3760483646863539 0.1263834524691546 F F F
0.9993566725890252 0.4998688030960662 0.9996647938243147 F F F
0.1254380141204202 0.6221537110231818 0.9994519308208891 F F F
0.1255348772832388 0.4997987424185963 0.1253424413616780 F F F
0.9989899911206287 0.6222353989143686 0.1256935467928125 F F F
0.2509093323715587 0.5000614595117221 0.9992982058051241 F F F
0.3762107571000418 0.6236211719985780 0.0000066299660810 F F F
0.3761363656085896 0.5004389775527932 0.1258025776740997 F F F
0.2516254661409255 0.6232796849087857 0.1257959329595127 F F F
0.5000997746038558 0.5005751403080626 0.0000322080098256 F F F
0.6237314646955692 0.6238226710546159 0.9999461675136688 F F F
0.6239802883381512 0.5000175453732079 0.1260342889175006 F F F
0.5000401082802488 0.6246218566561894 0.1260698575403566 F F F
0.7484551129103150 0.4996115767238565 0.0000177705592158 F F F
0.8732196770190410 0.6227295376629065 0.0003632890915781 F F F
0.8736150469347954 0.4996072300444471 0.1261396665026321 F F F
0.7480777741665121 0.6234685067248603 0.1256572836131115 F F F
0.9971309642435365 0.7457770956702111 0.0004271277009124 F F F
0.7481349130316564 0.7473436614561413 0.7489222346921811 F F F
0.1249327536310877 0.8722137218233839 0.7452937424495184 F F F
0.4995839280675381 0.8747853762340134 0.8740442600383541 F F F
0.2526813114838858 0.7471825393967169 0.0005607158444528 F F F
0.3783722774611429 0.8740316627915259 0.0010989941101633 F F F
0.3759161468703765 0.7491292294489593 0.1260121168584073 F F F
0.2536777201592038 0.8751740989424598 0.1267375282610392 F F F
0.5005898330765051 0.7488088775489852 0.0000477496675624 F F F
0.6231401011736458 0.8743595882339563 0.9990459120552538 F F F
0.6235640123812175 0.7490067270323334 0.1252265338832352 F F F
0.5002752610359220 0.8745572620409804 0.1255849070941016 F F F
0.7470143747310524 0.7472207538741260 0.0000778480243901 F F F
0.8684356670212211 0.8663948294431773 0.0026310592998513 F F F
0.6233470321110348 0.7483724521913000 0.8743195217003344 F F F
0.7450388733476168 0.8736807285819036 0.1242799199611357 F F F
0.0022577329649365 0.0020313251366241 0.2504704005119707 F F F
0.1263283176241048 0.1246391793673701 0.2515267442790153 F F F
0.1260858019546950 0.0004212664942966 0.3764845964517110 F F F
0.9999109372698826 0.1257854233782836 0.3757824839068970 F F F
0.2503047217864218 0.0003585245066688 0.2501130953069592 F F F
0.3758056867129671 0.1258754115591780 0.2512414337906134 F F F
0.3756981652884740 0.0005149416433550 0.3751333960908982 F F F
0.2511582627521783 0.1256567399150215 0.3760617499663302 F F F
0.5000018407673821 0.0004871964833948 0.2511611938285747 F F F
0.6236655955237754 0.1260261663668101 0.2514301605076399 F F F
0.6249898352242791 0.0003217342232203 0.3754632151566893 F F F
0.5005227332478626 0.1260295459596089 0.3759197402771154 F F F
0.7487393166648338 0.0009665690159758 0.2496603219373715 F F F
0.6244320325881395 0.8744723715529542 0.7491510197675738 F F F
0.8748492305702289 0.0011318166750737 0.3747162214724383 F F F
0.7499712188278763 0.1258156211591864 0.3750016108019983 F F F
0.9987752070443706 0.2506812619418113 0.2522185597163723 F F F
0.1255925059781113 0.3773178128646050 0.2526899107294659 F F F
0.1258977189812120 0.2506574030277544 0.3753284465173534 F F F
0.9997422547945914 0.3754347328802538 0.3763300581659597 F F F
0.2528083423927319 0.2515694400356229 0.2530856419943148 F F F
0.3761147681264467 0.3758453554302887 0.2510497015855689 F F F
0.3764099179609925 0.2508312423095419 0.3759336519422197 F F F
0.2513046214882580 0.3757314716719048 0.3761432673800258 F F F
0.4999285748319143 0.2507569711435112 0.2509166131314408 F F F
0.6244984166966154 0.3751229384975918 0.2509965657149788 F F F
0.6250303404033667 0.2506548600803644 0.3757312347608923 F F F
0.5005142049801929 0.3749503093406184 0.3754180531735685 F F F
0.7493171622899449 0.2508212013959914 0.2512426266618159 F F F
0.8739477315648645 0.3758065159262027 0.2514488724433968 F F F
0.8741768667453694 0.2499803800620245 0.3751686938906537 F F F
0.7493111433818699 0.3747913262757190 0.3756087542183792 F F F
0.9996778277449307 0.4996973282998418 0.2513476866835596 F F F
0.1259844426190311 0.6232231535388726 0.2514906994013878 F F F
0.1259216119152346 0.5002758905908553 0.3763639464522557 F F F
0.9998706873635881 0.6234510193958184 0.3763227551522532 F F F
0.2514128229528950 0.5002311073162988 0.2515208378497811 F F F
0.3755990266378254 0.6245662983006294 0.2508629333288327 F F F
0.3758013494826256 0.4999827881917253 0.3757118326510124 F F F
0.2513294143719373 0.6245490691747063 0.3757806577991478 F F F
0.5002078597551975 0.4997801347385930 0.2507382298961644 F F F
0.6239815080030137 0.6243459268639147 0.2507437028924611 F F F
0.6249607054984295 0.4998556148009864 0.3755807348206355 F F F
0.5001752055245058 0.6245319848075315 0.3754341014928365 F F F
0.7487540768064015 0.4998695404139568 0.2512229264313643 F F F
0.8739604911982116 0.6239563304736629 0.2511773630560085 F F F
0.8738997427624151 0.4995006355630086 0.3758382406535772 F F F
0.7489178801580934 0.6240535528987267 0.3754290522490105 F F F
0.0009898521536966 0.7468982752931744 0.2522463798944310 F F F
0.1251556776778266 0.8757023958087544 0.2528176926572709 F F F
0.1262591092553732 0.7488912598765912 0.3761591105235513 F F F
0.0009102278686684 0.8747938484771629 0.3766975305836097 F F F
0.2518802547430637 0.7493281008665083 0.2519154646619567 F F F
0.3761453297697652 0.8749542935416852 0.2511992441504090 F F F
0.3759288659866361 0.7492912542736918 0.3756738237477712 F F F
0.2511099152128012 0.8748893950887624 0.3756657711277717 F F F
0.5000746640459600 0.7493904043459113 0.2507179436311472 F F F
0.6240343535682563 0.8745117850093616 0.2510456492271121 F F F
0.6243380834259640 0.7488993355692996 0.3756325990839821 F F F
0.5002697848510796 0.8745135182241350 0.3754469961874231 F F F
0.7475626433027807 0.7475830798607013 0.2506894084646665 F F F
0.0001493726195225 0.7478253139322718 0.7499072134277787 F F F
0.8742169905000701 0.7481555461870493 0.3762867637876285 F F F
0.7490757535707238 0.8744175898015134 0.3754516375839952 F F F
0.5005677374334927 0.7488662763386553 0.7489062787422952 F F F
0.1257883963974719 0.1257470847874684 0.4993415541705273 F F F
0.1267825248749125 0.0002206888003018 0.6224790557380920 F F F
0.0010990353288618 0.1256835582943462 0.6230247192942225 F F F
0.2513928157539464 0.0002257644441466 0.4994857750174806 F F F
0.3758638714445414 0.1260748141703017 0.4997421974203939 F F F
0.3769049522266999 0.0005206878771805 0.6231762578584891 F F F
0.2506765806365041 0.1264635397126760 0.6239544407452072 F F F
0.5006090402117318 0.0003690699261251 0.4990120520259768 F F F
0.6256614086307910 0.1257589363474731 0.4999306998649643 F F F
0.6240525571436025 0.0003470109045373 0.6233799988519504 F F F
0.5006522239895663 0.1260594650156087 0.6240146686892697 F F F
0.7495739381296294 0.0003884872658425 0.4990148354376234 F F F
0.8749800308475182 0.1255523445588377 0.4994985283847310 F F F
0.8751632185466434 0.0007127978154769 0.6219645289774851 F F F
0.7507288597678451 0.1255516440986306 0.6252708700061761 F F F
0.0000845721574298 0.2505325795496560 0.4995659748186458 F F F
0.1258519379800332 0.3753843164302170 0.4998420903338333 F F F
0.1259379413914227 0.2513055128529051 0.6234058726880148 F F F
0.0000814525461462 0.3749591790896177 0.6245892138361869 F F F
0.2508822923524479 0.2506958685847568 0.4997884143165882 F F F
0.3758683617852734 0.3749855280592416 0.4999810742791805 F F F
0.3756681004083818 0.2508067974759051 0.6240974173953625 F F F
0.2511972530747541 0.3756720315732310 0.6239010641194564 F F F
0.5009419605054944 0.2506221687992876 0.5001003598531367 F F F
0.6250870754747457 0.3749483970865131 0.5001999321248700 F F F
0.6255211105102804 0.2501862385059841 0.6245391809962838 F F F
0.5004573104805029 0.3749701547266741 0.6244634592600659 F F F
0.7498438620701978 0.2501352255462818 0.5000841817104779 F F F
0.8743649810299309 0.3744493360366747 0.5003048799030024 F F F
0.8752204078592180 0.2495985074297903 0.6253437839957561 F F F
0.7493932494159760 0.3749313133747443 0.6241537571352462 F F F
0.9998894566862453 0.4997787623642127 0.5001681433676713 F F F
0.1259736107797420 0.6243499982100598 0.4998425298257783 F F F
0.1256673696650171 0.4999735816192613 0.6241877761844598 F F F
0.9999306487760604 0.6242194858293467 0.6244795616138406 F F F
0.2510770177819456 0.5000898318689392 0.4999844472941925 F F F
0.3756542479478922 0.6246645277433107 0.4998103491044699 F F F
0.3755378940377395 0.4998807319495262 0.6244897138399946 F F F
0.2509921069487600 0.6240841482666971 0.6238344571151229 F F F
0.5002035309457750 0.5001328637898287 0.4999417107040241 F F F
0.6248640023744304 0.6244770545972497 0.5000021655658191 F F F
0.6249133328144660 0.4996005850943255 0.6247272778285418 F F F
0.5002736151650000 0.6245939786672872 0.6243348943365035 F F F
0.7493612866740049 0.4994025923910347 0.5001527041619239 F F F
0.8741212159909709 0.6240564436553750 0.5000418280002895 F F F
0.8743460321760782 0.4994982856224101 0.6243985536850708 F F F
0.7489452231621589 0.6237305433329174 0.6240287010558376 F F F
0.0000570617601540 0.7486531599133200 0.4994986494854449 F F F
0.1261092898579412 0.8745224562321190 0.4996329721001241 F F F
0.1255631651617605 0.7483197902391783 0.6234328631243774 F F F
0.0008727439617170 0.8738992078461569 0.6217481156402779 F F F
0.2510434516169398 0.7493328324824813 0.4999653327420892 F F F
0.3761148461398513 0.8744132399614482 0.4996694638024178 F F F
0.3758574562743691 0.7487816650502153 0.6240180482799030 F F F
0.2515539681977283 0.8738927045047432 0.6236488793649702 F F F
0.5003378301515428 0.7492349856657738 0.5001359996808018 F F F
0.6246653870200324 0.8743691308675813 0.4993647690233788 F F F
0.6245689557934402 0.7492757166176173 0.6243876150198822 F F F
0.5003515102172492 0.8744855056748280 0.6241268967527207 F F F
0.7490003051557430 0.7489785583268046 0.4998489267855418 F F F
0.8743870666264881 0.8746186297205096 0.4990631048269730 F F F
0.8744118913195497 0.7485849245050152 0.6236867512686148 F F F
0.7483792175410073 0.8745418377943888 0.6230487284848403 F F F
0.7486444149635357 0.6234385829297340 0.8744466412540765 F F F
0.1235369206432783 0.1289219169844874 0.7476414204708609 F F F
0.8740835466085779 0.4995260550766135 0.8744862018678270 F F F
0.9897556099834587 0.0641299555295525 0.9420327760029262 T T T
0.2539127936149295 0.0011813000237116 0.7449982822035136 F F F
0.3769214396541071 0.1264326187656268 0.7481810447476939 F F F
0.3771212853585619 0.0013987550309771 0.8740895971454681 F F F
0.2553022751063014 0.1284912663525947 0.8717186856660974 F F F
0.5005413078256012 0.0004329851737089 0.7492441852452333 F F F
0.6235229866664573 0.1262222272892813 0.7490127260039413 F F F
0.6235006627987385 0.9997263259931090 0.8750773757059802 F F F
0.5003762627860959 0.1257887443756700 0.8745127734959958 F F F
0.7452937182903906 0.0012595884827117 0.7483896404364317 F F F
0.8739515602510155 0.6236270536268023 0.7490785529944004 F F F
0.8537458412302427 0.9948208443222988 0.8853810543017655 F F F
0.7440210292315796 0.1280389574974909 0.8749070140451554 F F F
0.0013681457638231 0.2525220206221186 0.7506491810117775 F F F
0.1260795902248074 0.3761237420486667 0.7486318995185008 F F F
0.1250724339839980 0.2507348710946192 0.8726300293556238 F F F
0.0003577530313994 0.3763595428994449 0.8746091054560691 F F F
0.2517356299141121 0.2519064869780382 0.7481372669975177 F F F
0.3753922169601370 0.3755247278388867 0.7491905366608514 F F F
0.3773115536449015 0.2520718041977493 0.8736587640515708 F F F
0.2503927149106462 0.3757404724180194 0.8735047351374523 F F F
0.5003578953982353 0.2511399025048843 0.7486607585152241 F F F
0.6253028127919397 0.3748537978531671 0.7490143364598892 F F F
0.6232994929132457 0.2518684806804534 0.8741644442193530 F F F
0.5001180607671671 0.3758957555735964 0.8739417094059061 F F F
0.7498268408556157 0.2504147565290625 0.7495057823202519 F F F
0.8742126216518306 0.3760238999915293 0.7488371577670305 F F F
0.8748165213398907 0.2532037396000288 0.8748959365491484 F F F
0.7493543257713827 0.3753867470186871 0.8740538424967744 F F F
0.9999821552591844 0.4997677836020734 0.7491650446588578 F F F
0.1255303457831629 0.6236168611645253 0.7489751336372146 F F F
0.1256209488246499 0.5001096223825771 0.8738236191368607 F F F
0.9993851123658016 0.6225703339291401 0.8743677609901830 F F F
0.2511047107038089 0.4999843863516605 0.7489723682760423 F F F
0.3758133021524128 0.6240299477254672 0.7489466129095066 F F F
0.3754289306246936 0.4999839898514660 0.8741003126020463 F F F
0.2506897706766277 0.6241972648200899 0.8741959675463165 F F F
0.5002810927561098 0.4996559732828790 0.7488268040085586 F F F
0.6243860433691223 0.6243001533004822 0.7490725424675920 F F F
0.6245317862344661 0.4998628553401119 0.8736921894917371 F F F
0.5001199182424501 0.6237376580744739 0.8740415439959540 F F F
0.7492294854082433 0.4996494709164899 0.7491628888578228 F F F
0.8834491630650905 0.1194379426815271 0.7596655258256008 F F F
0.1309950538514365 0.0028244580933524 0.8717216895760687 F F F
0.2514242009082290 0.8724696520356016 0.8744145661312598 F F F
0.8763502490502092 0.8731858696533337 0.2463145740793247 F F F
0.1248672487686049 0.7510075979562633 0.1247640465866486 F F F
0.1269466885220298 0.2532052478823386 0.1273486811153222 F F F
0.0000581356789451 0.8816735638770297 0.8837285984427250 F F F
0.8796450587150878 0.0015519343486771 0.1140648264177253 F F F
0.8739509372531752 0.8771847235157809 0.7505239037131562 F F F
0.1339925006940256 0.1272975729345437 0.0025106853004458 F F F
0.0061138959729367 0.9983833260796068 0.7449927095775135 F F F
0.8748428820103796 0.1245641465267038 0.2491670642464428 F F F
0.8735583338093802 0.7439708542213918 0.1264146428283763 F F F
0.0011394748203037 0.8750787693923531 0.1184610652553744 F F F
0.1291993282918090 0.8759007419632118 0.0028698156800676 F F F
0.7409852977553675 0.0008326576411587 0.0040359978330240 F F F
0.2538988774724829 0.1261611414895827 0.1287272394609668 F F F
0.7439072329500003 0.8696746164406377 0.8739602684232728 F F F
