#comment
1.0
16.184 0.0 0.0 
0.0 16.184 0.0 
0.0 0.0 16.184 
Al Mg Zn 
215 30 10 
selective
Direct
0.9997440091750024 0.9989315268068995 0.5008774461052207 F F F
0.8707625973594249 0.8709808340568854 0.7388507617759787 F F F
0.7477129133944613 0.7465738489430274 0.7471023544915011 F F F
0.5012347508397320 0.8729141834772313 0.8736473277239752 F F F
0.6240449222776544 0.7476020617059169 0.8735786464229661 F F F
0.3828641604119799 0.1269398322345591 0.0000739352138864 F F F
0.3819875821629846 0.9983637454300125 0.1286088793994623 F F F
0.6251940959494479 0.8729290503547347 0.7497984056277793 F F F
0.5021533804083572 0.9994247838165122 0.0006184477995704 F F F
0.6211428519449329 0.1272926180205041 0.0014318660785881 F F F
0.6215655337894259 0.0008065336874919 0.1276651019397927 F F F
0.5004153881324506 0.1265252443775413 0.1271925677621075 F F F
0.5009607283308967 0.7480849549819961 0.7484062737112297 F F F
0.3789568349448750 0.7464079568019858 0.8741004590019714 F F F
0.3796131875858149 0.8735141831227509 0.7465441202214894 F F F
0.7445731053993940 0.1297366861310822 0.1295202883737050 F F F
0.2549555945184381 0.7456164538213068 0.7454539675497299 F F F
0.1260564185408976 0.3826042708462092 0.0000612780363076 F F F
0.9969022453568344 0.7445769089495463 0.7442969040439098 F F F
0.9978680591700057 0.3807687101331267 0.1266222968463756 F F F
0.2556569188072095 0.2559672792414703 0.9997797864603815 F F F
0.3776888265194826 0.3779496777009690 0.9996856722226745 F F F
0.3790695932969562 0.2537338175747405 0.1263245494468209 F F F
0.2534025847061523 0.3789813890606061 0.1261084038406904 F F F
0.5008655451344809 0.2524832780949597 0.0000207614921351 F F F
0.6230199392569333 0.3767427196381521 0.0003705290879782 F F F
0.6225686124655092 0.2524555021843298 0.1264469465079837 F F F
0.5000144706640334 0.3764368331633877 0.1261042541800415 F F F
0.7465387417082657 0.2540130037943746 0.0034149684305134 F F F
0.8736243549314107 0.3790459205071581 0.0029204869801194 F F F
0.7471745884580773 0.6213147808527951 0.8724763667350465 F F F
0.7478293639277404 0.3774945254399224 0.1266723259137856 F F F
0.9995518567771187 0.5019438520155737 0.0004281152915995 F F F
0.1268143395964270 0.6208953857908021 0.0017801596009858 F F F
0.1263825479203728 0.4993949355191791 0.1269264190196323 F F F
0.0011698469402391 0.6200957795913942 0.1275727387570257 F F F
0.2526286704600748 0.5010744952277049 0.0002619434559790 F F F
0.3771255248949830 0.6237391668350215 0.0004514793888674 F F F
0.3764045727337873 0.5007670077893203 0.1260658293630967 F F F
0.2516808866134906 0.6232541685313618 0.1262329395238896 F F F
0.4998390717868952 0.5000057446782701 0.9998667460290317 F F F
0.6228165650996337 0.6221039809784982 0.9996971321185317 F F F
0.6227991492580904 0.4989568434706007 0.1261431278638651 F F F
0.4997633456910555 0.6241011934512229 0.1258813488898266 F F F
0.7470014489077778 0.4984789093371125 0.9999553973804730 F F F
0.8707926563218233 0.6172761109717397 0.9980825708490024 F F F
0.8731760593467851 0.5007642062162557 0.1270512390830869 F F F
0.7446337228625906 0.6191967963147502 0.1270273470811868 F F F
0.8724491254409176 0.4978348268401575 0.8732641154841624 F F F
0.8727579116781518 0.6213553832939077 0.7470818033847608 F F F
0.7479663569904452 0.4997544427673036 0.7483125277072256 F F F
0.5009375320269858 0.6239503488551973 0.8739879125242108 F F F
0.2536509509285206 0.7471634974642444 0.0031591641211286 F F F
0.3813368378796154 0.8716441116291828 0.0019153086218393 F F F
0.3771660530624166 0.7484867553018221 0.1261413838507595 F F F
0.6235896273672582 0.4997932110247283 0.8738380079128107 F F F
0.5012336739690842 0.7474760212811136 0.0000897369889953 F F F
0.6228541526717120 0.8726778199957688 0.9989144537027508 F F F
0.6226470698889073 0.7466961993704140 0.1262214663353352 F F F
0.5021589476418016 0.8730574994057302 0.1265504939749467 F F F
0.7464345727732729 0.7408446337022181 0.9988364896081743 F F F
0.6236867921798117 0.6235476584488128 0.7486271507661064 F F F
0.5001123545025858 0.5002255894910793 0.7484522941565116 F F F
0.2543335909845105 0.6220573045911572 0.8740940331983817 F F F
0.3768826203854428 0.5002309956670512 0.8738013450988571 F F F
0.3774107379262047 0.6234366903085263 0.7485649741303155 F F F
0.1271591075293547 0.9989216569650843 0.3803964476759816 F F F
0.9997212450355414 0.1271978805235213 0.3836275688500637 F F F
0.2551046363872719 0.9988240401030078 0.2534932738858761 F F F
0.3790787171744422 0.1263214518129828 0.2537660979288975 F F F
0.3775665390490640 0.9993516646485731 0.3763443049732368 F F F
0.2535052387001806 0.1260727221278798 0.3775663730518352 F F F
0.5008856732939527 0.9995329142914842 0.2521542438635099 F F F
0.6225748937726729 0.1265572199075959 0.2524051778385227 F F F
0.6224332021743758 0.0001299451588521 0.3766245404019903 F F F
0.5003877138428842 0.1259635603992236 0.3761870727909210 F F F
0.7445555123416201 0.0020630970583816 0.2549917807648225 F F F
0.2522960803387859 0.5004075422158019 0.7480427416707376 F F F
0.8730151198101536 0.0014328354977988 0.3808949185235888 F F F
0.7468206796482085 0.1269793599919137 0.3779094516790732 F F F
0.9997574813797990 0.2595043455913641 0.2562095249869947 F F F
0.1264935997879884 0.3791644980128432 0.2531328320090689 F F F
0.1264851634276943 0.2543465675285591 0.3789997463758447 F F F
0.9998594944063790 0.3788514346560243 0.3779154849031853 F F F
0.2538073198808719 0.2546651780485130 0.2543810962411622 F F F
0.3765189668416911 0.3769179309961540 0.2514875089403593 F F F
0.3769061724453664 0.2515415137878499 0.3765710948058867 F F F
0.2515281573434651 0.3770583829467704 0.3764774975213197 F F F
0.5005083999742899 0.2518978879864578 0.2517512683076729 F F F
0.6234177304923885 0.3762273427649226 0.2512820009786559 F F F
0.6233554918429366 0.2513722192614371 0.3760998881067589 F F F
0.4997739121477840 0.3759448995088724 0.3755998016197741 F F F
0.7462776772361972 0.2541198503842917 0.2531292744172802 F F F
0.8731502624400148 0.3773829645240747 0.2517769966875440 F F F
0.8735011538813798 0.2548046250828425 0.3795446931960628 F F F
0.7483423740033305 0.3765259259345757 0.3763721317491355 F F F
0.9999096230055675 0.5000966876199844 0.2522190088859727 F F F
0.1268374392622409 0.6234177111430061 0.2513404151686217 F F F
0.1266076576025066 0.5006560885296508 0.3759956792530234 F F F
0.0004507224601184 0.6212904293864154 0.3776979828745038 F F F
0.2519448691224477 0.5009037315736251 0.2514112900294204 F F F
0.3763099417245694 0.6242431176861434 0.2507802029380302 F F F
0.3759886801929643 0.5003413470985680 0.3756557256352719 F F F
0.2518511808783552 0.6238446158904351 0.3756767714914679 F F F
0.4996335184236476 0.4999411116021291 0.2510724477880926 F F F
0.6224353251944018 0.6229423880366125 0.2515941149128463 F F F
0.6235450594722738 0.4998517950190623 0.3759277095946597 F F F
0.4995859501959720 0.6240651684302921 0.3756084691696031 F F F
0.7475162673970027 0.4988984468636449 0.2519871563524698 F F F
0.8725446275096985 0.6200134715684824 0.2543691345007720 F F F
0.8734104851145867 0.4993722860706100 0.3767009489062115 F F F
0.7475251944283975 0.6227421453794004 0.3769693786099834 F F F
0.0000739980327384 0.7410359255299576 0.2564116040362493 F F F
0.9980521496163505 0.6185096500350351 0.8712822895531168 F F F
0.1271559190163678 0.7459244809981542 0.3778649216325144 F F F
0.0013890810223242 0.8715211042888663 0.3820475536346626 F F F
0.2533961715374879 0.7464555951403458 0.2511594121893692 F F F
0.3767982665847192 0.8730745023301261 0.2509317830764964 F F F
0.3765751175070060 0.7490028574743042 0.3756790965749633 F F F
0.2530098907495358 0.8732660542407852 0.3773179891017474 F F F
0.4997542198216854 0.7483808726598775 0.2509381127133101 F F F
0.6228898753978932 0.8733832598017383 0.2520859368105932 F F F
0.6225361968593295 0.7485250033780338 0.3766539819660699 F F F
0.4998304575477575 0.8737748432217979 0.3752081151848498 F F F
0.7445985215561561 0.7450182311351063 0.2550455064760115 F F F
0.1273490480550993 0.5012029791839601 0.8732520297471512 F F F
0.8730345830744387 0.7445138398496678 0.3795385775174647 F F F
0.7454687094317597 0.8736792462434786 0.3787889906118417 F F F
0.1262369721770680 0.6213807358148830 0.7455585657669133 F F F
0.1274521541047602 0.1264582351098952 0.4989337370610485 F F F
0.1287091573337201 0.9993766509668937 0.6159655496184931 F F F
0.0002910716230447 0.1279075809386254 0.6165646339172312 F F F
0.2539801728912411 0.9997965125495047 0.4990017228240443 F F F
0.3769334611715267 0.1261101095207741 0.4994037302230179 F F F
0.3788110487684268 0.9998559205082334 0.6216913733351898 F F F
0.2543802008909449 0.1265308855981024 0.6210333165534165 F F F
0.5002624537025125 0.9997475549785857 0.4995605106986791 F F F
0.6232082280687483 0.1260468185499840 0.4993878163501300 F F F
0.6227229170557456 0.9993502336935864 0.6223801211978440 F F F
0.5004341643949379 0.1261560139957326 0.6233279960316399 F F F
0.7462229180765310 0.9996907148106329 0.4992391143376719 F F F
0.8723185184257587 0.1271623959387416 0.4999618338007125 F F F
0.8700906595835689 0.9981795503045675 0.6162278424101248 F F F
0.7451892330170844 0.1259765554506608 0.6211425656081367 F F F
0.0002465205400914 0.2540486940656384 0.5000141247605702 F F F
0.1266058184992019 0.3770208535780386 0.4997831332344986 F F F
0.1270645405889223 0.2534998505182093 0.6211733476350280 F F F
0.0002792143753101 0.3778908514417783 0.6220612948712380 F F F
0.2522517142702945 0.2517739515627907 0.4995142379869872 F F F
0.3759981293579934 0.3761268655612041 0.5000300703342184 F F F
0.3768252391230070 0.2512262299574174 0.6235580378817337 F F F
0.2516994393547836 0.3767509870110857 0.6232590378560868 F F F
0.4999791874414458 0.2510451740007446 0.4997679816255022 F F F
0.6235136341591322 0.3758734367897756 0.4998564945996362 F F F
0.6232124047197566 0.2514038191832967 0.6234364117614329 F F F
0.4998130441973219 0.3757666267261441 0.6239780670839976 F F F
0.7475167786217386 0.2521086597483893 0.4998171695573223 F F F
0.8735583868194969 0.3773223841227378 0.5002466684251762 F F F
0.8730932929747923 0.2543814647286761 0.6204184479619631 F F F
0.7480196821781936 0.3769425674584921 0.6230632573282109 F F F
0.0001018312578783 0.5001631570340525 0.5005355925432625 F F F
0.1265130137100152 0.6233682178741421 0.4997877869971121 F F F
0.1265470307229626 0.4999450456197649 0.6231922478410639 F F F
0.9995839535678551 0.6224624696547145 0.6224958474106840 F F F
0.2515994339808967 0.5002673866825664 0.4996625094364105 F F F
0.3760246117210739 0.6242207496253803 0.4997616061488765 F F F
0.3762026419568991 0.5001207392149357 0.6240204479236700 F F F
0.2522505050438929 0.6232154599696593 0.6229635730058372 F F F
0.4997807712248766 0.4999559146619422 0.4998803538528115 F F F
0.6235560859470527 0.6241740493194985 0.5002267588114411 F F F
0.6238452319452104 0.5002226528698838 0.6241188989769191 F F F
0.5000628939546931 0.6242749324797219 0.6238186343031272 F F F
0.7480429278410876 0.4997961930910700 0.5000775087143262 F F F
0.8733087577165347 0.6226043402415272 0.5002454302843882 F F F
0.8734771667919113 0.5000101743388584 0.6233286081102557 F F F
0.7483538734815517 0.6235998691087369 0.6237096057875546 F F F
0.9999297497370294 0.7458195862022466 0.4997927383892877 F F F
0.1274798040322617 0.8724591600210362 0.4994915375128933 F F F
0.1263667770814774 0.7460910164941520 0.6213904232566591 F F F
0.9985441714744527 0.8702619856483006 0.6177441596711526 F F F
0.2522745536421022 0.7480590777144099 0.4994770181445284 F F F
0.3772127439458490 0.8737593288174548 0.4995674806885761 F F F
0.3772801059863026 0.7487014805205752 0.6232041047085580 F F F
0.2543869288890821 0.8732240463634537 0.6209473134518693 F F F
0.4996498798929250 0.7486235165000301 0.4998229281581114 F F F
0.6228137452224654 0.8735309518514383 0.4997574753820345 F F F
0.6237741296421004 0.7488064166912791 0.6238741890417570 F F F
0.5012986910447472 0.8736169901145783 0.6240132486258089 F F F
0.7477143106778261 0.7479818997438901 0.5001147920087199 F F F
0.8727898270752863 0.8726273127548482 0.4979489414636011 F F F
0.8728525791113354 0.7463982614849067 0.6211449245805430 F F F
0.7465295284765222 0.8729190393210797 0.6214263299635565 F F F
0.9996722889054733 0.5002430436530265 0.7466290895958048 F F F
0.7467491159796507 0.3771366601130441 0.8743736741088378 F F F
0.8734820107966217 0.3783981312181810 0.7461444811491773 F F F
0.7457462507672636 0.2548959495205309 0.7457650671530146 F F F
0.2575371519735797 0.0002886264347236 0.7435897706174948 F F F
0.3792158013464830 0.1262886567770334 0.7470261225244160 F F F
0.3836467823693385 0.9995915301484953 0.8730198492489208 F F F
0.5001541571048804 0.3764524607782008 0.8736496213275722 F F F
0.5017737809572662 0.9996486745723500 0.7474711574650525 F F F
0.6229317922149555 0.1257379928028172 0.7466963963129667 F F F
0.6220747313825208 0.9984123935131265 0.8732484503375133 F F F
0.5020470161719143 0.1263438436189729 0.8731529303598887 F F F
0.7455013071982016 0.9972320585766180 0.7452323609767610 F F F
0.6220359403049871 0.2535367688582271 0.8739819110923712 F F F
0.6231193715038564 0.3768672353532009 0.7485633386889835 F F F
0.5006159993627688 0.2516913869391532 0.7480141570648213 F F F
0.0003928042264737 0.2557471096667472 0.7429370696417087 F F F
0.1268383704496392 0.3789189099103210 0.7467057038617820 F F F
0.2529127524499883 0.3786067503936976 0.8736824842973843 F F F
0.0001524788613313 0.3833686893746978 0.8733654696441143 F F F
0.2541249697141479 0.2542795970897814 0.7464490067756480 F F F
0.3768074728312605 0.3766586019825782 0.7487532304556128 F F F
0.3789156649636504 0.2530827909846663 0.8733404683720982 F F F
0.1231125174190735 0.2561292053351776 0.8752597181308797 F F F
0.7471607014836282 0.1276877313102486 0.8734965585552381 F F F
0.1157569830071340 0.1220681878522671 0.0017241524563792 F F F
0.8724665062302591 0.1274898215412590 0.7413597380100564 F F F
0.2545837193340823 0.1252593534752411 0.8744179321435889 F F F
0.9972691557906346 0.1156545570043130 0.8733830879342930 F F F
0.1138437235797925 0.0031493275715262 0.1312032707444646 F F F
0.8769685398930972 0.2567753133916544 0.8748638039260571 F F F
0.1271125313650348 0.1249076458990724 0.7440525464884820 F F F
0.9976096300209027 0.9975890115522821 0.7385394765041783 F F F
0.7609103817264998 0.8704874827291782 0.8797588075313650 F F F
0.8733999402318943 0.8720625969708051 0.2604330492182025 F F F
0.1272203338115291 0.8708965638690341 0.2522856002811751 F F F
0.8762155248895124 0.1326676215364821 0.2559021574508665 F F F
0.1225554788365510 0.1275940007749267 0.2570399651325985 F F F
0.2558325543537415 0.9976013596277092 0.0035799676010796 F F F
0.7506486148004953 0.8726515687885770 0.1234305392586457 F F F
0.8697900035837439 0.7404510798953945 0.1277737440588710 F F F
0.2557574151084102 0.1276397783266506 0.1273650417795192 F F F
0.7513287951920253 0.0025762798602986 0.0017472155186810 F F F
0.9954712757900890 0.8677571941275537 0.1299006530577423 F F F
0.2560740004911493 0.8740549598005137 0.8727863801920520 F F F
0.1209819831801766 0.8772513042098528 0.0004857844641481 F F F
0.9925658899932319 0.7447262892393447 0.9966116793665810 F F F
0.8825730807188182 0.1296083863661312 0.0098270697235795 F F F
0.1247040851069058 0.2567819210573379 0.1250468775092140 F F F
0.1273398025235541 0.8741137377306579 0.7440818463051957 F F F
0.1264801689289695 0.7431590505655838 0.8723867147900292 F F F
0.9900570790736954 0.8743598502501998 0.8685257609135510 F F F
0.8817261276777385 0.0068823280689996 0.1399054148214427 F F F
0.8723375673669104 0.2577023123951530 0.1290997403684987 F F F
0.9994228595590282 0.2604056920940895 0.0007890116781950 F F F
0.2535215769683652 0.8723594744006211 0.1276374293575050 F F F
0.9247453473890214 0.9467119412695788 0.9974845038709618 T T T
0.0004443286012834 0.9979792684462891 0.2658433202293172 F F F
0.9993192924422722 0.1402392886629451 0.1346497443161059 F F F
0.1301408312229918 0.9987546203237107 0.8691119946523065 F F F
0.8682335795139182 0.0023117188423651 0.8603212556683661 F F F
0.8715842033004970 0.7384923229605940 0.8690290248947885 F F F
0.1264748200490793 0.7443316713447075 0.1257656358201319 F F F
