#comment
1.0
16.184 0.0 0.0 
0.0 16.184 0.0 
0.0 0.0 16.184 
Al Zn 
240 15 
selective
Direct
0.0007173126116238 0.0001669551544807 0.0002248145998464 F F F
0.1253094978848592 0.1252018358220011 0.0018944034389096 F F F
0.7500599298430738 0.8750924608372439 0.8736957290898736 F F F
0.8748615270297955 0.7500258872581264 0.8738866189085235 F F F
0.2498033276350994 0.0006415679014346 0.0010754451829593 F F F
0.3743652034001619 0.1252311516257970 0.0008445647654956 F F F
0.8749422379918091 0.8750474240959952 0.7490475602744194 F F F
0.7502551576045854 0.7499418537540111 0.7485554154424255 F F F
0.4994634888963342 0.0001286969595611 0.9990054151294325 F F F
0.6248439743794243 0.1248166652064456 0.9983391097027451 F F F
0.6250345999531222 0.9997499019771803 0.1232421307650058 F F F
0.4995877381691272 0.1249782454835731 0.1240209181663974 F F F
0.7501624789169097 0.9999004192144598 0.9985834644673923 F F F
0.8754228910581743 0.1249720160702597 0.9994563977257908 F F F
0.8749799879799195 0.9999548781812407 0.1240204028856820 F F F
0.7498048389103502 0.1247678308329327 0.1236758065395069 F F F
0.0005535934048078 0.2499245203383955 0.0009132697310789 F F F
0.1251079288860745 0.3744911654105247 0.0009583556994400 F F F
0.4998738698827044 0.8750749858407705 0.8738678887873667 F F F
0.6247752106948145 0.7501558980750311 0.8734699570161697 F F F
0.2498743244574956 0.2497605442183385 0.0017847464574440 F F F
0.3748832220817102 0.3743810649841617 0.9998186974784079 F F F
0.6249579257921188 0.8750469845111652 0.7485636183748514 F F F
0.4998927571408483 0.7500056803195942 0.7484195246247396 F F F
0.4993078318850867 0.2498833424979958 0.9992905268255742 F F F
0.6249679242004531 0.3753871920222649 0.9983430949975113 F F F
0.6251763948050484 0.2502479476606196 0.1236607817831788 F F F
0.4997416434396922 0.3747562256720170 0.1237401093262366 F F F
0.7496052313475376 0.2503282915930468 0.9982551234392303 F F F
0.8752591971998452 0.3751059979421870 0.9993111193033014 F F F
0.8738775305548980 0.2499653545268464 0.1232643968032006 F F F
0.7506467733175977 0.3753211731800379 0.1244657100313556 F F F
0.9999397657951627 0.4997234163043461 0.9994779156724612 F F F
0.1246904204869510 0.6253746379741406 0.9987741320974224 F F F
0.1250544218584092 0.5012008536546420 0.1233938654131601 F F F
0.9997134564283545 0.6243958689379953 0.1248578967420463 F F F
0.2500277894696626 0.4995883294189497 0.9993982773543809 F F F
0.3751457389734591 0.6248416488565082 0.9985100375590474 F F F
0.3751015993153263 0.5000560580185521 0.1237678777878637 F F F
0.2502981764632116 0.6252472322262411 0.1238797892833702 F F F
0.4999517400995609 0.5001200421407556 0.9981713993061635 F F F
0.6250969323767657 0.6248551578657464 0.9981501825928023 F F F
0.6251343259505221 0.5000547889035932 0.1231638784219427 F F F
0.5002015915574034 0.6251322155908956 0.1230398595221936 F F F
0.7501829738377072 0.4999974655784211 0.9985523172606511 F F F
0.8750145788818116 0.6248817447439990 0.9988987376781059 F F F
0.8749622812067144 0.5000556943807651 0.1237406102176372 F F F
0.7499043854639196 0.6251323430525745 0.1231885160870657 F F F
0.9996615867099546 0.7500596237142467 0.9990374294020298 F F F
0.1251936503771628 0.8756719170998242 0.9999207758395234 F F F
0.1247755504697190 0.7498680797273306 0.1243621882579574 F F F
0.0002740850679204 0.8753084403791217 0.1244193403668898 F F F
0.2501745898214848 0.7501445681371518 0.9988259618723422 F F F
0.3748938738387417 0.8754836930172044 0.9992348990659854 F F F
0.3753203295831076 0.7499764757907047 0.1233611317227567 F F F
0.2500579580995486 0.8754725533315196 0.1244626696508533 F F F
0.5001177088194503 0.7500661089900095 0.9982424372473303 F F F
0.6249173242245621 0.8749185643095179 0.9982702460842376 F F F
0.6251754057775178 0.7498961502519498 0.1230276320049610 F F F
0.4998425734295109 0.8752309463358805 0.1232882231409544 F F F
0.7501533370201331 0.7499144638115161 0.9983214180121415 F F F
0.8749500405536035 0.8750464225596546 0.9987107582343211 F F F
0.8749679804743039 0.7499395625470812 0.1236276747450225 F F F
0.7499110890216486 0.8748703520558927 0.1232072085024376 F F F
0.0008573100766166 0.0013767700974859 0.2495669976786702 F F F
0.1258801519738388 0.1271295560327738 0.2520197339147287 F F F
0.2503402960236155 0.8751188954978272 0.8745000204900961 F F F
0.3753383068347801 0.7498924250083102 0.8737509407254616 F F F
0.2499808389053040 0.0012708096932645 0.2493868670491912 F F F
0.3738223596784737 0.1251070230365238 0.2491356501861638 F F F
0.3749681281233411 0.8751387271585737 0.7488721196717014 F F F
0.2501343849143903 0.7500708746505820 0.7490653420902567 F F F
0.4992396620822239 0.0001783769332293 0.2487779198884728 F F F
0.6248871350616774 0.1250998200460678 0.2487150986504207 F F F
0.6250806063507736 0.0000617938626577 0.3740406010942379 F F F
0.4995620563425455 0.1249939357052909 0.3735405804310784 F F F
0.7499248360172384 0.9999283811257237 0.2490147533114148 F F F
0.8751908150390041 0.1249393235883267 0.2497668314323848 F F F
0.8755854584002468 0.0005297223467446 0.3740899645900238 F F F
0.7504447503212165 0.1259239699698032 0.3740774115856371 F F F
0.9992454764910486 0.2480261190415655 0.2423968124662933 F F F
0.1270327994153586 0.3757394059683562 0.2424193061454906 F F F
0.9997745255702399 0.8748575548033740 0.8744814519248026 F F F
0.1248025672048059 0.7504434888796248 0.8742882803923071 F F F
0.2479352843390027 0.2491636371215373 0.2518793412741097 F F F
0.3736871144628344 0.3741906819579077 0.2490811764360287 F F F
0.1249797328564376 0.8751951106685644 0.7492430093213556 F F F
0.9996648547946404 0.7500151231758488 0.7489718882105811 F F F
0.4989716384593964 0.2498543524668941 0.2487113638314792 F F F
0.6247227742859804 0.3750705645066837 0.2486000267310675 F F F
0.6246880117003991 0.2502610811817284 0.3738392848288883 F F F
0.4993645988378122 0.3748762403701841 0.3735314322039355 F F F
0.7501772239764999 0.2501656643055568 0.2493289404806672 F F F
0.8772522130515944 0.3748590826937147 0.2506021780990427 F F F
0.8794939558020493 0.2522953575242601 0.3738611984428402 F F F
0.7504801178952218 0.3750637803373907 0.3741128598847338 F F F
0.0001774629508066 0.4977427700360373 0.2508080450949425 F F F
0.1248555653425617 0.6248410297404230 0.2496200706552598 F F F
0.1227547513548243 0.4955794585572220 0.3739791562509239 F F F
0.9999543937368833 0.6245903161291212 0.3744923690638290 F F F
0.2501923833116525 0.4998364138704306 0.2496816004842413 F F F
0.3751176860097840 0.6251089455538128 0.2489218257176926 F F F
0.3745104637902342 0.4994434174179876 0.3737577773124766 F F F
0.2490835328400208 0.6246307615342543 0.3742443652905808 F F F
0.4999060883397103 0.4999774312944716 0.2483294226383944 F F F
0.6252071380847337 0.6250588495171442 0.2486385425741381 F F F
0.6249201061552370 0.4999477850988068 0.3738993786724042 F F F
0.5000861257753495 0.6249699501307262 0.3739367370409439 F F F
0.7501428182586737 0.5000639205803016 0.2489562460239115 F F F
0.8749746441388319 0.6249135273652739 0.2492062724480601 F F F
0.8774390347861756 0.4975772663006256 0.3741053622592397 F F F
0.7508004915176085 0.6242697070109835 0.3741574179732550 F F F
0.9999566532766365 0.7503514795611138 0.2493472443363088 F F F
0.1252155135800084 0.8761188495997517 0.2493278646966534 F F F
0.1248096828409085 0.7503454295210386 0.3743962312807008 F F F
0.0001257733143442 0.8757208845176895 0.3741921127193080 F F F
0.2499393027267708 0.7501558873924062 0.2490457926156982 F F F
0.3748989102248493 0.8758257229703766 0.2489326381597090 F F F
0.3749875947566605 0.7499802341362924 0.3741386278272356 F F F
0.2500803219639747 0.8755165585703232 0.3739546395910974 F F F
0.5002189820052773 0.7502414047769835 0.2484577616850641 F F F
0.6248407384080159 0.8748488949921303 0.2484985815625288 F F F
0.6250780726587128 0.7499758098559560 0.3740464507043761 F F F
0.4997203790692528 0.8753405463972549 0.3738608426443821 F F F
0.7500159544155524 0.7499025512633021 0.2488686560232053 F F F
0.8750733540120266 0.8751360384079260 0.2488769743449836 F F F
0.8751026845607817 0.7501903180358078 0.3743944622036280 F F F
0.7501025338128966 0.8749730113694131 0.3742463954919060 F F F
0.0004135947020912 0.0009808463307455 0.4981542731789633 F F F
0.1253792328866286 0.1270740136146366 0.4958039153045779 F F F
0.1250279621999051 0.0010730705191543 0.6229129075037230 F F F
0.9999928126102655 0.1240645931566371 0.6248841905699144 F F F
0.2500300673433785 0.0006672965601174 0.4976363884763179 F F F
0.3743411885403718 0.1249435344829733 0.4974543187713251 F F F
0.3751861897864044 0.9998256729784600 0.6238800596587170 F F F
0.2501005249137171 0.1248960158866399 0.6237392205089460 F F F
0.4995738436565533 0.9999532519653120 0.4983997821909601 F F F
0.6248539744233730 0.1250344065207019 0.4989266760862380 F F F
0.6248132594882961 0.9998321446443225 0.6238716568106130 F F F
0.4996548527370387 0.1250109843092100 0.6233669302606361 F F F
0.7499576627802973 0.9998059331350739 0.4990404241827879 F F F
0.8750632462105550 0.1248084221819779 0.4982675903478486 F F F
0.8749071260509557 0.9997615660081346 0.6239788729179485 F F F
0.7499768869592198 0.1247404548228187 0.6238475383074371 F F F
0.9987759906410199 0.2485495477354936 0.5043853853693021 F F F
0.1264446222208060 0.3762369688725876 0.5043480114013035 F F F
0.1255922128325901 0.2494494964862800 0.6247537790326436 F F F
0.9996666789137461 0.3753705954287765 0.6252883822605996 F F F
0.2479055830973799 0.2496888331770252 0.4956714918699172 F F F
0.3740486313134754 0.3745835124178158 0.4977192629009069 F F F
0.3739162277092740 0.2499541431902943 0.6225749083409506 F F F
0.2509818627883452 0.3750017232547339 0.6246436165069522 F F F
0.4992387243968917 0.2499289991391342 0.4982737453379038 F F F
0.6247439954962417 0.3751916581981100 0.4987492702690767 F F F
0.6250231953071010 0.2502938963174558 0.6233428934322417 F F F
0.4997130392220365 0.3749839872925899 0.6232150720110449 F F F
0.7503973372310619 0.2502258194903607 0.4986627494333767 F F F
0.8772889471072494 0.3749469241870224 0.4974650107024080 F F F
0.8740425068096873 0.2499126467280053 0.6249387354473330 F F F
0.7508412939263369 0.3752481640517814 0.6228845793750640 F F F
0.0000554615735728 0.4977926299724299 0.4975692516424436 F F F
0.1248118246589403 0.6246857889130292 0.4990059667937637 F F F
0.1250692595357759 0.5009798251865518 0.6250653575352185 F F F
0.9997474339499181 0.6241824170295156 0.6232405398647032 F F F
0.2502017723725476 0.4999631617646575 0.4981687065193039 F F F
0.3751910285818392 0.6250736136944929 0.4988448073811080 F F F
0.3752664365260168 0.5001154571935682 0.6234737842476549 F F F
0.2502360918237274 0.6250705836046317 0.6239484801465901 F F F
0.4999939458421808 0.5000086628923416 0.4988378226371320 F F F
0.6251266255985845 0.6249701045125161 0.4988063241956748 F F F
0.6249670202813790 0.4998312737785223 0.6234137511753537 F F F
0.4999705034326782 0.6249925033902862 0.6236054712122469 F F F
0.7501652274948405 0.5000315947168434 0.4987939777126463 F F F
0.8750115153865334 0.6248773888184972 0.4990531186172096 F F F
0.8749722297330069 0.5000684635075151 0.6240172329310302 F F F
0.7500280396279128 0.6249746457576500 0.6237291632294080 F F F
0.9998426769959221 0.7502918778097588 0.4993350288431270 F F F
0.1250633652116697 0.8757867944368705 0.4988495355058146 F F F
0.1247025846130825 0.7500108428507535 0.6239392996030114 F F F
0.0000038579134933 0.8753083686633825 0.6239194093138418 F F F
0.2499810167749152 0.7502234390248621 0.4992796020742956 F F F
0.3750755272507825 0.8755014678321045 0.4985743402826163 F F F
0.3751475117223613 0.7501974048438930 0.6238967801406333 F F F
0.2499481096844390 0.8753970662263605 0.6237919066599138 F F F
0.5001371258613910 0.7501444427276364 0.4990624358419716 F F F
0.6248813900152792 0.8748770124743882 0.4991858299287633 F F F
0.6249884861706498 0.7499976045229612 0.6237224088090599 F F F
0.4999001456642136 0.8751149461039081 0.6237612361880763 F F F
0.7500442243520825 0.7499361545143236 0.4990254183691012 F F F
0.8750285750545850 0.8750995983731749 0.4994127629780151 F F F
0.8751370046274739 0.7500454737803907 0.6239761995450402 F F F
0.7499905638935512 0.8750636318788015 0.6239836260109799 F F F
0.0001509323629095 0.9996087228950016 0.7495018754465742 F F F
0.1251100781446935 0.1248940661672960 0.7498067701334852 F F F
0.1251357002542563 0.0001649860940745 0.8750489980697764 F F F
0.0001553444947944 0.1250075117236905 0.8750057954134483 F F F
0.2498254828379142 0.0002214425371880 0.7490008508070206 F F F
0.3747986977853209 0.1251674493659166 0.7487905841766022 F F F
0.3749611300020210 0.9999508536994401 0.8743407779304239 F F F
0.2501186471909316 0.1248783893560004 0.8752524351951035 F F F
0.4998193877296529 0.0000054776125091 0.7487426896894337 F F F
0.6249033698072103 0.1248710263502469 0.7487436270345601 F F F
0.6250705186726591 0.9996405029882784 0.8736280359369717 F F F
0.4998035504045919 0.1246926307374915 0.8741131722531383 F F F
0.7501162890424193 0.9999050932750051 0.7487739818996381 F F F
0.8750262720160153 0.1248127531103419 0.7493528884421592 F F F
0.8750954939984088 0.9997499979768080 0.8743256144602648 F F F
0.7499813428203822 0.1248683194782040 0.8738473334726148 F F F
0.0001078874275781 0.2499370749233741 0.7498050024060731 F F F
0.1251107916271022 0.3748976389402620 0.7497689660773530 F F F
0.1251959692952944 0.2498188954046477 0.8754464397403637 F F F
0.0000167880347794 0.3750090105115978 0.8746769802312783 F F F
0.2500641431031649 0.2498861141280488 0.7495805634680965 F F F
0.3753682936334409 0.3748664972771478 0.7490421024248746 F F F
0.3747661952346203 0.2498805054608487 0.8746326885338203 F F F
0.2500079327656681 0.3748774673526398 0.8748622209471216 F F F
0.4997434110416201 0.2500240383712815 0.7485632699721289 F F F
0.6249493137260859 0.3753511699973267 0.7482951522852170 F F F
0.6245071722956143 0.2502541410605717 0.8736263769938696 F F F
0.5000962957712475 0.3752736293550434 0.8738111192098444 F F F
0.7495902570145881 0.2503373707150334 0.7489932157687220 F F F
0.8748485349033427 0.3752032103019188 0.7493308975554422 F F F
0.8751976168864593 0.2500295030333259 0.8744713858171790 F F F
0.7501058497374553 0.3753983012000258 0.8736915604964426 F F F
0.9998031249442736 0.5001832096043771 0.7494830600846676 F F F
0.1246884895314660 0.6253983653984043 0.7494225282176098 F F F
0.1249978467537982 0.4998029202444547 0.8746044679918649 F F F
0.9996606661094602 0.6248861477191576 0.8742046027241215 F F F
0.2501847028109613 0.4999278754353208 0.7491941599541030 F F F
0.3750518626662692 0.6248143756122195 0.7484823364943626 F F F
0.3752124690589329 0.4999568277317421 0.8739205041256121 F F F
0.2501497696136367 0.6250072433834198 0.8739958570199010 F F F
0.4998924301608447 0.5000577420094702 0.7484062151265735 F F F
0.6250266570858463 0.6247321308322802 0.7483211087413009 F F F
0.6249461451704960 0.5001926052804740 0.8733227872913152 F F F
0.4998596469718251 0.6249163153623747 0.8733274422203504 F F F
0.7501452809624855 0.4998447959260748 0.7482832468258132 F F F
0.8752063271321898 0.6248433214161300 0.7485636545325648 F F F
0.8748695644748552 0.5001580926130708 0.8741241845990984 F F F
0.7501239173430018 0.6248816276832095 0.8735643556618220 F F F
0.3738286595978073 0.2500407827719050 0.3738307643899489 F F F
0.0646313588065032 0.3103962512371296 0.3736987303727990 T T T
0.2464894618897311 0.3724041441371504 0.3738310201612605 F F F
0.2474647786344434 0.1275878191442521 0.3740236232982032 F F F
0.3739384795064403 0.0011399357196219 0.3737488537647790 F F F
0.0026560235699542 0.1285955636277991 0.3740039416452837 F F F
0.1250053545407693 0.0012381460113370 0.3742272396257736 F F F
0.2512414126391794 0.3749569587082744 0.1237488076034629 F F F
0.3732295819561051 0.2499072472274659 0.1260112307864917 F F F
0.9996773398688062 0.3753586372373440 0.1239973443481382 F F F
0.1258142225513914 0.2492450065070758 0.1246945213392149 F F F
0.2506641023308248 0.1243984668678089 0.1246416771145664 F F F
0.3754174804062047 0.9996259797493706 0.1239044743545281 F F F
0.0001036959850128 0.1238131683845825 0.1239218807403162 F F F
0.1251455128858444 0.0018471457989030 0.1264284114911332 F F F
