#comment
1.0
16.184 0.0 0.0 
0.0 16.184 0.0 
0.0 0.0 16.184 
Al Mg Zn 
220 15 20 
selective
Direct
0.9998852244658097 0.0004687448986200 0.5006701750822103 F F F
0.7490037635879038 0.7491785774865940 0.7498362656523307 F F F
0.4984221214990228 0.8736799032689745 0.8747615245390865 F F F
0.6230943898079282 0.7487784443437279 0.8745909577376342 F F F
0.6232175721170368 0.8732854648672534 0.7495145102503575 F F F
0.3790670357324925 0.1258102886630477 0.0015052587203374 F F F
0.3760763278129272 0.9986825783321297 0.1258675101278403 F F F
0.2541700323311876 0.1257427519753463 0.1218557608620561 F F F
0.4983943814220065 0.9986165870561363 0.0005639546230312 F F F
0.6199752949691344 0.1254986183004229 0.0011018716819018 F F F
0.6198720960393896 0.9988087232889735 0.1271232209186263 F F F
0.4995821058596900 0.1252847398445137 0.1269235039190318 F F F
0.7412044599578833 0.9976054450400542 0.0003631437320397 F F F
0.6244606061513321 0.5006082457028570 0.8742134990960720 F F F
0.4996551972060438 0.7488600792828968 0.7491938796751452 F F F
0.6244819382882513 0.6247552755061921 0.7491914343688414 F F F
0.3758260052758493 0.7482380219783705 0.8745785799535551 F F F
0.1251955423540473 0.3765821256032155 0.0002167127056714 F F F
0.3756198215677633 0.8736593623505775 0.7492809635296543 F F F
0.9999287500674429 0.3759763587289879 0.1256609718906423 F F F
0.2537497077948659 0.2561902865562517 0.0019435572921482 F F F
0.3772237172968435 0.3771344488441224 0.0001311906953640 F F F
0.3767746334142348 0.2510795550729349 0.1263229593293403 F F F
0.2510697673968892 0.3771673743658838 0.1259222100522544 F F F
0.4996677808519090 0.2519749727921199 0.0007234723016244 F F F
0.6235793298911644 0.3767113271157865 0.0003750255364925 F F F
0.6224331606030020 0.2519188971630016 0.1268817191535763 F F F
0.4998934083063725 0.3763096465294426 0.1263195954033244 F F F
0.7479465873882227 0.2535625224119738 0.0021272392366892 F F F
0.8751922964461142 0.3778687284094859 0.0018448528532572 F F F
0.2528732682098914 0.7466895297540619 0.7484797726764141 F F F
0.7488937573405793 0.3764556671865092 0.1268256241102548 F F F
0.0005934501587737 0.5001726839084785 0.0002913472863501 F F F
0.1277708924436305 0.6203341773273601 0.9990641666506767 F F F
0.1255456173257813 0.4990669893890671 0.1255911414719939 F F F
0.0007650055383419 0.6214160898195472 0.1263312979736639 F F F
0.2512611418847817 0.4993830592358398 0.9996632543650937 F F F
0.3753073043325102 0.6238810922373138 0.0000148848630022 F F F
0.3755482128442740 0.5002688052918052 0.1260896614527871 F F F
0.2503418312889766 0.6234476253247632 0.1252300839726100 F F F
0.4998984351825241 0.5006538191378800 0.0001104859709279 F F F
0.6235220679701502 0.6237558561107054 0.9999476240107684 F F F
0.6236292345354848 0.4999223513547365 0.1260606505535932 F F F
0.4988528791206142 0.6241496676515313 0.1259243918928581 F F F
0.7484597473549338 0.4998644382046328 0.0002789775047158 F F F
0.8728592677867864 0.6210164089522834 0.9993847431185047 F F F
0.8745457262000331 0.4995302160263619 0.1261917793362965 F F F
0.7477053208482902 0.6222354972617570 0.1258884261597466 F F F
0.5003192480435863 0.5003855091711600 0.7486794650129253 F F F
0.2511927894334174 0.6237004016909943 0.8740091290504086 F F F
0.3755930358481327 0.5002119103056657 0.8737670166658061 F F F
0.3758283651933529 0.6241989686206006 0.7487278606776161 F F F
0.2500900504990092 0.7477529496995626 0.9999753069386939 F F F
0.3742036719597787 0.8734207764786927 0.0007832905944153 F F F
0.3738513684064035 0.7497153950714662 0.1253439335428990 F F F
0.9984048766365829 0.7464305966390767 0.7493528254539021 F F F
0.4983724278919466 0.7484575165433059 0.0000843902207151 F F F
0.6211505881252363 0.8728762581893583 0.9997704977301184 F F F
0.6216326298042351 0.7477647368846331 0.1256999433143527 F F F
0.4982256216181347 0.8737575494850317 0.1257781662050030 F F F
0.7468278861961372 0.7470242664994464 0.9992604389657552 F F F
0.2514445439390672 0.5002868255689309 0.7484623052430499 F F F
0.8717979436916193 0.7433002647013564 0.1254048444923136 F F F
0.7421734921185433 0.8719080435629315 0.1264920830693825 F F F
0.0003498262301168 0.6201955493902694 0.8721428152725296 F F F
0.1266904739373694 0.4993214735177385 0.8736974944219734 F F F
0.1260248687713105 0.0004742558257410 0.3756943230114481 F F F
0.9995446274259968 0.1262584615839710 0.3771589968053968 F F F
0.2509033973966648 0.9986132710965370 0.2477842037819550 F F F
0.3757784392483765 0.1253013790531290 0.2511801195460103 F F F
0.3748360743493985 0.9997395013621159 0.3748560613139579 F F F
0.2517819089969202 0.1260513962439699 0.3756307285051081 F F F
0.4991158566049517 0.9997692401894442 0.2521201771706172 F F F
0.6226798312247138 0.1260264504045785 0.2530536180276135 F F F
0.6228697491634467 0.9997468300605856 0.3774952824810524 F F F
0.4996787449386085 0.1258429790390153 0.3761820785359697 F F F
0.7461327845405618 0.9995456748625479 0.2548191892904200 F F F
0.7489075220664267 0.6236186090054786 0.8739779119877581 F F F
0.8741354398942098 0.0009786778519228 0.3785761086680198 F F F
0.7488283900788263 0.1258364241216721 0.3768270469541269 F F F
0.9980629761997993 0.2522436910861126 0.2517057133842166 F F F
0.1251540390108801 0.3757463365090020 0.2505596640915985 F F F
0.1256278327442098 0.2513319237256962 0.3754731629478901 F F F
0.9998073783207241 0.3761549153855203 0.3762112512230758 F F F
0.2530936702511543 0.2527410873157271 0.2504243341904758 F F F
0.3757804814104782 0.3761928135894016 0.2506894748863699 F F F
0.3762639656156023 0.2515932103375587 0.3758451646192497 F F F
0.2509799461300006 0.3762903504141016 0.3748896195353831 F F F
0.4995253457676113 0.2511521598772413 0.2517447664842284 F F F
0.6240935395709678 0.3765013820823266 0.2513332289797224 F F F
0.6244339978278731 0.2513714493038314 0.3764806449602388 F F F
0.4999317640745142 0.3761372641554349 0.3756323695267313 F F F
0.7491255741047330 0.2525039763496469 0.2532710630268830 F F F
0.8744111551548800 0.3757464470641683 0.2506852266322789 F F F
0.8741457138390515 0.2512049586040248 0.3770498015284658 F F F
0.7492021378833971 0.3760111797580311 0.3762207603003053 F F F
0.9997433866497459 0.4990733617721601 0.2508497658627337 F F F
0.1259476299593030 0.6231841897908591 0.2507631232990979 F F F
0.1257259607572747 0.5000072999381460 0.3749921873797649 F F F
0.0000585205522806 0.6235932335634824 0.3762051179828156 F F F
0.2506167086642678 0.5001780763453296 0.2506978564087352 F F F
0.3748717303485676 0.6246559055753806 0.2505352124215402 F F F
0.3752521782095319 0.5005321755737548 0.3750473553507663 F F F
0.2505687852325494 0.6247643414921444 0.3749808744968579 F F F
0.4998034438511431 0.5001289032248538 0.2513353581160173 F F F
0.6233856371505638 0.6236727549377149 0.2511437503205961 F F F
0.6246825263329958 0.5003730490914137 0.3760037286003296 F F F
0.4995663598352146 0.6246805223473934 0.3754251315098820 F F F
0.7490034026846855 0.5000442796609817 0.2513617070946659 F F F
0.8743835302786945 0.6232162052962664 0.2517041644185614 F F F
0.8739527210296882 0.4998021217039527 0.3757723903498503 F F F
0.7485320613221994 0.6240695157917138 0.3759495564383069 F F F
0.0018524477453346 0.7460217971020742 0.2520315537102794 F F F
0.1290348939005568 0.8738520626860756 0.2523256508542956 F F F
0.1259725788429192 0.7493624694791471 0.3757466769428313 F F F
0.0010039663622017 0.8745825035432266 0.3771165221942229 F F F
0.2509688641111180 0.7483356381788021 0.2505766192904367 F F F
0.3748283469690861 0.8739012902583334 0.2504018405268799 F F F
0.3754789776474865 0.7492208602491852 0.3755845661574339 F F F
0.2511560716788630 0.8742772139448779 0.3763443691036856 F F F
0.4986914196277554 0.7489182948932221 0.2506731398590156 F F F
0.6221187690850386 0.8734857111836747 0.2519186372104432 F F F
0.6233420032486814 0.7488843451713008 0.3759636779384790 F F F
0.4991946187519498 0.8739381494539062 0.3757085550296382 F F F
0.7464666115303915 0.7465955624241012 0.2516566179271554 F F F
0.1261721848601957 0.6234987722503813 0.7480746728188514 F F F
0.8740906509310977 0.7474154918887451 0.3779507086630647 F F F
0.7475214549527776 0.8738469668793826 0.3779753245355076 F F F
0.8744283308314993 0.4984840175651817 0.8740226314190805 F F F
0.1257832503536706 0.1258753632672416 0.4995169396526658 F F F
0.1262528653894167 0.0004268404316937 0.6218474232684543 F F F
0.0001188491279950 0.1247193564964343 0.6243001727097359 F F F
0.2509784728162566 0.0000147846928413 0.4991840356033196 F F F
0.3756371678264511 0.1257491624564426 0.4993085571792066 F F F
0.3763617765915087 0.0000786850755484 0.6232564144371432 F F F
0.2521052186137493 0.1262894303753322 0.6222568776124199 F F F
0.4997309515791191 0.0000690375911404 0.4999117022736392 F F F
0.6247257463932916 0.1260666867165683 0.5005932309203477 F F F
0.6229090284693306 0.9995823162513485 0.6235760467752683 F F F
0.4998594663410380 0.1260227859419663 0.6236440152266666 F F F
0.7492236520497285 0.0001061367019992 0.5016513345980187 F F F
0.8744597550330737 0.1253868578390689 0.5014147972604032 F F F
0.8753341418953309 0.0001509837268154 0.6260052272660775 F F F
0.7497947451247432 0.1251914559334348 0.6250129259949407 F F F
0.0001252603644818 0.2505931907804390 0.5001440733229313 F F F
0.1260872969380188 0.3758153560283051 0.4992445913774681 F F F
0.1263172763741213 0.2510409252141467 0.6222077989998698 F F F
0.0005389522773733 0.3761301295625432 0.6229299761752949 F F F
0.2513126757344430 0.2513908992730416 0.4989526463270138 F F F
0.3752660207897228 0.3758712558629228 0.4996897646844502 F F F
0.3760390387975561 0.2512990325990537 0.6233224036949901 F F F
0.2513281363923143 0.3764209906025617 0.6232707260654800 F F F
0.4998956364227735 0.2510355038460328 0.5000029951908780 F F F
0.6245268810158302 0.3758134699979994 0.5000963289380375 F F F
0.6246115779915259 0.2511451387180088 0.6237646823769706 F F F
0.5000276660605533 0.3757486106774698 0.6240281365012998 F F F
0.7493274992655744 0.2508473696976686 0.5006488981318229 F F F
0.8739930190744634 0.3756123652934512 0.5000921103032299 F F F
0.8749167393637596 0.2509406529002799 0.6237939573470361 F F F
0.7491862115796296 0.3762733821964799 0.6236711367766961 F F F
0.0000535259370127 0.4999339734949165 0.4998574585699381 F F F
0.1257213451707608 0.6241858205015217 0.4992188448986740 F F F
0.1260436742187873 0.4999990549790649 0.6234448632436446 F F F
0.9999102216741053 0.6238804763714481 0.6237666675563559 F F F
0.2510989805743601 0.5002313449954765 0.4993297169429065 F F F
0.3752194143858631 0.6245326545220695 0.4996941560048713 F F F
0.3757963388091277 0.5002344721719441 0.6240747263088474 F F F
0.2509160099429922 0.6239040390867773 0.6233589612680354 F F F
0.4999968086974708 0.5001307273236183 0.4999682672163356 F F F
0.6243188121764740 0.6247608303453074 0.5003670626846330 F F F
0.6248823952055643 0.5004608182177672 0.6243955446813054 F F F
0.5001120532019666 0.6246423664230594 0.6241460183766793 F F F
0.7490443334898647 0.5005823735845908 0.5003950702261063 F F F
0.8740881082677484 0.6241950462982387 0.5003694574003956 F F F
0.8742678053438768 0.5002906738352972 0.6239805983018287 F F F
0.7492332691723845 0.6247461708318766 0.6246502148282285 F F F
0.0001845999858412 0.7493548983074867 0.5001579775442401 F F F
0.1251643904027375 0.8746597596387772 0.5006652633998637 F F F
0.1254820355412012 0.7481715326724839 0.6224618335154591 F F F
0.9984216608193194 0.8746139946354863 0.6248306178629431 F F F
0.2506546553049641 0.7491809054566818 0.4991473549885690 F F F
0.3759705511452459 0.8743637612292720 0.4996401853328699 F F F
0.3761711635656192 0.7489033943867280 0.6235243920463674 F F F
0.2523325388343570 0.8737947878540151 0.6222677407348634 F F F
0.4998562743093299 0.7491694075206665 0.5001014696358603 F F F
0.6236480505941666 0.8738963312988561 0.5007490663669469 F F F
0.6246084568586178 0.7493688514317188 0.6248807195240906 F F F
0.4998196217342127 0.8739496887124454 0.6244464389048644 F F F
0.7486844635839385 0.7487081332810978 0.5007841980396190 F F F
0.8743912389102078 0.8748200321791199 0.5008862386370522 F F F
0.8741039606099078 0.7488192806438908 0.6241041856149817 F F F
0.7493461778851845 0.8741245085266526 0.6243209241996408 F F F
0.8738515209508861 0.6236562645870743 0.7491705208969870 F F F
0.1285053823983142 0.1256076417135943 0.7443862301483056 F F F
0.0003321749211880 0.4995916983137040 0.7479051096692678 F F F
0.7481801282872272 0.3769253138358103 0.8743651408566676 F F F
0.2546319849591294 0.0009143535238825 0.7471044783231319 F F F
0.3772204213430218 0.1261724624986868 0.7483193527977582 F F F
0.3749132800999353 0.9985354090627429 0.8766587282372843 F F F
0.8750765394459158 0.3774252830591777 0.7477530213918077 F F F
0.4989162849195593 0.9992381077452871 0.7489146332222749 F F F
0.6221389631646081 0.1254439035478304 0.7475496074432558 F F F
0.6204054641215621 0.9979349451376591 0.8737868698061884 F F F
0.4993539712938481 0.1251708282727504 0.8740201247158801 F F F
0.7463019858516143 0.9977571685672009 0.7465986435040588 F F F
0.7490383196078534 0.5005998037869173 0.7488633411370138 F F F
0.8694666265863479 0.9987802260050214 0.8640591908191164 F F F
0.7477131650083191 0.2528361884218329 0.7465695860660805 F F F
0.0030277595138464 0.2525449394951655 0.7456948365353016 F F F
0.1268827192233447 0.3771230118237376 0.7477972701512363 F F F
0.4998330810263008 0.6241843220826379 0.8739292963651792 F F F
0.0027867074267215 0.3771373995294239 0.8744600400474167 F F F
0.2521104695841130 0.2530659312431802 0.7466816986521336 F F F
0.3757841306139108 0.3764410039506424 0.7487822768625920 F F F
0.3781576196712713 0.2530069976283087 0.8744022648193386 F F F
0.2510929627293422 0.3758369487667356 0.8744055630408679 F F F
0.5001019657262685 0.2518602223167656 0.7484855733048953 F F F
0.6239648879048717 0.3768111308365737 0.7488331198220617 F F F
0.6224910958352728 0.2523583448561948 0.8742750394989820 F F F
0.5003050665974810 0.3768502533994007 0.8741213064434008 F F F
0.7478971922552689 0.1249163310976344 0.8743677043279728 F F F
0.2510828174103622 0.1297296856285241 0.8770472875597916 F F F
0.8768813873386572 0.2516474386405104 0.8745732368388133 F F F
0.0063118115334694 0.1234519159168620 0.8745065559518318 F F F
0.1326793762694302 0.9980217653485720 0.8850379385174615 F F F
0.8727450524472832 0.8719577383843783 0.2506779294344749 F F F
0.1280736047595789 0.1266314085768559 0.2435298555315897 F F F
0.0001234108460535 0.0039537483286932 0.2425890486760499 F F F
0.8694736799867094 0.8789361445819396 0.0005529149679860 F F F
0.0057171879177052 0.8709148041572058 0.1222549395519910 F F F
0.1281601092104585 0.8731954099211767 0.7495146053257521 F F F
0.9977072001362598 0.8782307286331973 0.8759850143728810 F F F
0.0021632979455281 0.7439849499461542 0.9970885188126714 F F F
0.7499023695883335 0.1257899891462265 0.1277521920166131 F F F
0.8846405569663468 0.1120261825225777 0.0062572120266041 F F F
0.8760891594287167 0.1263601719087836 0.7461013785265607 F F F
0.0028098423129662 0.0000077199510269 0.7473552782481837 F F F
0.1265537221136878 0.2552810090477689 0.8724411201765951 F F F
0.8734215260200890 0.1272600767784942 0.2539038721615065 F F F
0.2479765027882314 0.8755298795209455 0.1270714220966852 F F F
0.1288239869784674 0.7455209825526810 0.1260055181462821 F F F
0.1276619141189752 0.7461396175319385 0.8729382671312206 F F F
0.1327280088612207 0.8682047024621444 0.0012552242663937 F F F
0.8741761492282814 0.2532071613977364 0.1259451763701976 F F F
0.1271045036676213 0.2568981632684512 0.1254944362500159 F F F
0.0001023119658649 0.2545034417968657 0.0012947654435900 F F F
0.2547175851167536 0.8715378506637340 0.8752161207380384 F F F
0.8656426567968117 0.9955459331041904 0.1312498931496901 F F F
0.2533793876811500 0.9983874669490117 0.0084714756453766 F F F
0.0010788361621251 0.1391068528910875 0.1275589563602503 F F F
0.0701088474496170 0.0096774029243405 0.0570709948644118 T T T
0.1304473571509383 0.1431246388323290 0.0020798423217060 F F F
0.8724873137536475 0.8721514071574490 0.7475027660395910 F F F
0.8720606894781394 0.7470212230423620 0.8735853262441821 F F F
0.7457641734788658 0.8727032443829572 0.8737425104487493 F F F
