#comment
1.0
16.184 0.0 0.0 
0.0 16.184 0.0 
0.0 0.0 16.184 
Al Mg Zn 
230 5 20 
selective
Direct
0.0001355994129669 0.9998003400503829 0.5001461477603635 F F F
0.7508324296090858 0.7503706143794150 0.7498782405443786 F F F
0.1366601896783162 0.0049177365191767 0.1208635992345926 F F F
0.5012341840105204 0.8748970923494748 0.8739606254018398 F F F
0.6256666413848049 0.7500599816849093 0.8741335824919819 F F F
0.3765784914372142 0.1262048631540529 0.9990729729330963 F F F
0.3768319667545487 0.0008024104294428 0.1246044278068826 F F F
0.6256290654213139 0.8752022413080093 0.7493047506924261 F F F
0.5012028723509990 0.0005969081203219 0.9993414689754151 F F F
0.6240326542390380 0.1260858046642924 0.9988188404441474 F F F
0.6235781075627465 0.0000824994923051 0.1248451564097353 F F F
0.5002920669163758 0.1261188757295579 0.1249958020721450 F F F
0.7481350375573758 0.0005792850666170 0.9998263255967688 F F F
0.5005775876171979 0.7498872958693550 0.7488315867381055 F F F
0.3759931751849300 0.7498202220702543 0.8740191340095217 F F F
0.7475874918193688 0.1255733961164262 0.1230097846578942 F F F
0.3753845763340267 0.8753385542408506 0.7486834773230123 F F F
0.1259204132572573 0.3756773306913328 0.9986348369971154 F F F
0.1267687485389066 0.2501412554835243 0.1230654162383290 F F F
0.0005736046310985 0.3751151435878011 0.1236068900209132 F F F
0.2517470566913605 0.2510192807066509 0.9988207384447388 F F F
0.3761809719694036 0.3759869512189571 0.9991291034092227 F F F
0.3760713771586240 0.2512171594584678 0.1245351205013178 F F F
0.2510141223473226 0.3751984043437349 0.1243635741531666 F F F
0.5003380247356405 0.2515812209381253 0.9991174487775606 F F F
0.6248637898265493 0.3763309598937638 0.9991144888372243 F F F
0.6242657035539603 0.2513688981038082 0.1244193645043108 F F F
0.5005667009995949 0.3759100493800087 0.1253485205524656 F F F
0.7485164468707129 0.2514350571689113 0.9984763393963069 F F F
0.8748408172159871 0.3763314120601750 0.9986986415319679 F F F
0.8742802398289629 0.2524491098423510 0.1216642074918009 F F F
0.7496816479266081 0.3759816530529903 0.1245186244107508 F F F
0.0002134212280696 0.5003379027576577 0.9990915982714650 F F F
0.1249160232779213 0.6236582516222663 0.9987287685360969 F F F
0.1257691446672511 0.4992189420529982 0.1245073930861241 F F F
0.9994839969723246 0.6234911545207956 0.1242204526539883 F F F
0.2507597381237694 0.4999813847513015 0.9993227945265283 F F F
0.3764860551085890 0.6240506016979935 0.9992332500055076 F F F
0.3762636044451082 0.5001080291466584 0.1252403795493087 F F F
0.2507081470596746 0.6238010365655620 0.1247252949384959 F F F
0.5007393316234591 0.5002575400669561 0.9995029179551529 F F F
0.6251184709064410 0.6248137098416747 0.9997911041810477 F F F
0.6252400730786982 0.5006926498506286 0.1253478780884525 F F F
0.5008647959130191 0.6248777383370735 0.1253511842905821 F F F
0.7501045012461435 0.5009934137084362 0.9998920996057874 F F F
0.8753231768490132 0.6257159824074081 0.9993777476190143 F F F
0.8748386276182594 0.4999531774103343 0.1248614313648412 F F F
0.7511468119958560 0.6257768586967508 0.1253116420601088 F F F
0.9996021533582861 0.7540273605100291 0.0026841656657248 F F F
0.2502738122568769 0.7487379825564507 0.7481979740358120 F F F
0.1245559729938889 0.7451827751656146 0.1239669635414591 F F F
0.0003601342369112 0.7534990143642571 0.7525414590624957 F F F
0.2514328580066031 0.7469229806042291 0.9998919586605876 F F F
0.3781215131138400 0.8749868013213122 0.9994824872123571 F F F
0.3767259362060031 0.7486369461926353 0.1247643202443531 F F F
0.2544262538683798 0.8745895177634883 0.1223665036547519 F F F
0.5013261699602599 0.7493329723842723 0.9993826794024033 F F F
0.6254228700305141 0.8750523578245690 0.9999338803447800 F F F
0.6254939650086137 0.7496417155730478 0.1251882124905536 F F F
0.5006745172451349 0.8745858098512969 0.1252593153442434 F F F
0.7493509664292100 0.7491715566696424 0.9999479250930965 F F F
0.8697004419842210 0.8728471912045309 0.0006015265237628 F F F
0.8764091544162466 0.7518519529837937 0.1255257646446314 F F F
0.7502780956195128 0.6256245886419777 0.8739710924648547 F F F
0.9986860483367229 0.9982827809140798 0.2476768974983939 F F F
0.8751911725281212 0.5009316879902765 0.8743176886278283 F F F
0.1255344802490140 0.0007405202558257 0.3747241889320791 F F F
0.0010883263500750 0.1245632332529100 0.3750685254621476 F F F
0.2523655505082897 0.0018952277178935 0.2500771351033324 F F F
0.3762171409867225 0.1261571464923067 0.2498613004165763 F F F
0.3763811359283092 0.0002333256144485 0.3753892381566605 F F F
0.2504139938600800 0.1259919485797469 0.3744286958270192 F F F
0.5005034728737774 0.0002122070461949 0.2502519157528180 F F F
0.6250103147562035 0.1255665540117311 0.2501580055441294 F F F
0.6244775443299162 0.9999456201267206 0.3762041310183783 F F F
0.5004740045316283 0.1261270834155988 0.3751696558196334 F F F
0.7481248791570749 0.9976341219673684 0.2503001200355622 F F F
0.8756748325401131 0.6262644637033583 0.7502974129616584 F F F
0.8741828435100014 0.9983381670434671 0.3765485408405347 F F F
0.7486421374863438 0.1255817355202207 0.3764833042270591 F F F
0.0016103273573839 0.2506972060503420 0.2478248844387448 F F F
0.1260648557168586 0.3752494826311781 0.2495585651058438 F F F
0.1255204343288528 0.2500792875495904 0.3742629661723431 F F F
0.0000746478291028 0.3750449769022731 0.3747875112394049 F F F
0.2505362136037015 0.2501559028226832 0.2494295723972963 F F F
0.3757190153094100 0.3749949010097166 0.2501469986781981 F F F
0.3755376323912030 0.2507640630813053 0.3747492864192467 F F F
0.2511640600474514 0.3750646500373238 0.3747835694996588 F F F
0.5004263724397242 0.2511453017214735 0.2502017550300405 F F F
0.6250556934305340 0.3757403384803734 0.2503167123777037 F F F
0.6251280007352069 0.2510851407795765 0.3753685140048411 F F F
0.5005150078658425 0.3754909102420221 0.3751848519015611 F F F
0.7483245410287995 0.2519269199708055 0.2494865612370522 F F F
0.8746724247845821 0.3753472944730228 0.2497398475409902 F F F
0.8750492474206844 0.2512118711225094 0.3759190517046610 F F F
0.7498222470328297 0.3755502475368949 0.3753400295827314 F F F
0.0000628608873571 0.4993232113182139 0.2495797921250285 F F F
0.1257591706243115 0.6229294110188763 0.2502683039855749 F F F
0.1257595382382464 0.4993528788040649 0.3750746858852192 F F F
0.0000085271869802 0.6244311243179954 0.3748335887693595 F F F
0.2514477959307561 0.4995501040667253 0.2500114323286910 F F F
0.3759337541325241 0.6246499814138776 0.2500638752391284 F F F
0.3757583625305466 0.5000771134927611 0.3748518693332744 F F F
0.2514386246739224 0.6244243603109086 0.3752598010766037 F F F
0.5004309103852971 0.5003691240744538 0.2504039207794386 F F F
0.6257886836165431 0.6251997104478560 0.2502211649689684 F F F
0.6255104429735854 0.5004631723666538 0.3751148522591035 F F F
0.5005013945601704 0.6249520346666630 0.3751757988963585 F F F
0.7497228214024861 0.5001332209642673 0.2501524852474560 F F F
0.8743824600164463 0.6240005768471736 0.2500503135267045 F F F
0.8748292194000470 0.5000438396271812 0.3751154864337081 F F F
0.7497371681795715 0.6246255780985404 0.3756116701005830 F F F
0.9982553133888266 0.7479848112876625 0.2485573808196695 F F F
0.7503056472755759 0.5006628686349831 0.7489599086327430 F F F
0.1250952218519398 0.7489140347908340 0.3749640483462992 F F F
0.9990084175852180 0.8743340042053130 0.3748644891450975 F F F
0.2518167002490409 0.7484502466853991 0.2494133559558747 F F F
0.3762804915723712 0.8746021557103671 0.2500557621860809 F F F
0.3759112099125345 0.7493193848424802 0.3751315146767346 F F F
0.2504539786249058 0.8745836505494062 0.3742674980386274 F F F
0.5007804126912245 0.7489277650019309 0.2505155425364072 F F F
0.6250916546721278 0.8741772121329807 0.2501940100446153 F F F
0.6256996748072676 0.7493617803505603 0.3754449177566266 F F F
0.5008598186992371 0.8741488935861758 0.3753215382450885 F F F
0.7503994644735361 0.7499559292006379 0.2501909384178473 F F F
0.5004883333778807 0.6250263277497543 0.8737683343465468 F F F
0.8744513497983387 0.7491231470375330 0.3757085687852025 F F F
0.7503742988665888 0.8739334998154697 0.3754817187632145 F F F
0.7502760643429071 0.8747524557889347 0.8744267138292984 F F F
0.1255822352817063 0.1254488181413518 0.4994012659929702 F F F
0.1258568607674303 0.0002752064293307 0.6226280120797572 F F F
0.0006555164218413 0.1252856282254689 0.6249769895065930 F F F
0.2506298721187346 0.0000505949819791 0.4989406889826692 F F F
0.3755764816580452 0.1260097762768821 0.4993944989741865 F F F
0.3750108215720735 0.0001594361648403 0.6241740976082074 F F F
0.2505774515884046 0.1259773158015354 0.6234003694261550 F F F
0.5004707669573060 0.0002010594748912 0.5004855557830873 F F F
0.6248970186186625 0.1261957523954835 0.5004472658811889 F F F
0.6255332913511337 0.0004109697815877 0.6249935730130975 F F F
0.5000039555243461 0.1262099146095453 0.6240920234244040 F F F
0.7502679752823890 0.9999530966768463 0.5010608915265530 F F F
0.8752011440699248 0.1250265247626095 0.5001118776241287 F F F
0.8761409731380752 0.9999517431546161 0.6261702882419196 F F F
0.7505803135971044 0.1254564663979209 0.6250501550966971 F F F
0.0003172941549125 0.2501914225310717 0.5002504824448863 F F F
0.1258652291783992 0.3750201960204439 0.4994165494655237 F F F
0.1257244925706232 0.2507460356224940 0.6242592643106881 F F F
0.0001401071136832 0.3748559629824011 0.6249642007259529 F F F
0.2510418234106563 0.2509031905109664 0.4992810341330509 F F F
0.3756194222347723 0.3754051011399001 0.4995083576000595 F F F
0.3755939432048095 0.2510869902737474 0.6239247009051622 F F F
0.2512850403885067 0.3754473956578559 0.6241421061186507 F F F
0.5001822757890756 0.2511318755707572 0.4995998248397493 F F F
0.6256127840185496 0.3753099707408102 0.4999909173243846 F F F
0.6253671195215768 0.2509695117294908 0.6244715851431695 F F F
0.5004692540304240 0.3754799678663477 0.6240037494247335 F F F
0.7500527174280316 0.2506694448897360 0.5004180361095715 F F F
0.8745341810670287 0.3754390575551483 0.5002368382866894 F F F
0.8752211222454653 0.2504046339177718 0.6249728849101729 F F F
0.7498437954602699 0.3755921332571474 0.6243782170116033 F F F
0.0002178358747504 0.4999872639981827 0.5004409075365914 F F F
0.1258618527186997 0.6245039720000292 0.4996165901717385 F F F
0.1260152794184331 0.5000926120909314 0.6241882775171406 F F F
0.0003547712731870 0.6259265137875978 0.6253469292874891 F F F
0.2512128451652392 0.4998036133931593 0.4992758159991079 F F F
0.3755487100963951 0.6250102306016403 0.4997588165479199 F F F
0.3756216319273800 0.5004683989236030 0.6239420716504841 F F F
0.2511475689121279 0.6247526764574738 0.6239347909825774 F F F
0.5005032222775962 0.5001692739546613 0.4996551138168601 F F F
0.6254879838954496 0.6251701177592603 0.5001051872245582 F F F
0.6255862423544893 0.5005253987439394 0.6242356103700506 F F F
0.5005386593945949 0.6252129226533454 0.6243843785676982 F F F
0.7499427744993229 0.5003799867309355 0.4998129002588574 F F F
0.8749676761085307 0.6249100731258295 0.5002558373356117 F F F
0.8748505033309969 0.5006552783559672 0.6246377733591794 F F F
0.7501196563478916 0.6251947205869547 0.6247905359440036 F F F
0.0001161173755643 0.7495860321406330 0.5004063657289353 F F F
0.1254697955324577 0.8747071373554511 0.4986702939022100 F F F
0.1254849725587372 0.7493365309268346 0.6237940513336110 F F F
0.0007123885472988 0.8746832256482687 0.6248972082862940 F F F
0.2507619542921874 0.7495657876255563 0.4994615977744787 F F F
0.3755600733978679 0.8742710216013361 0.4994390255222364 F F F
0.3756353541665281 0.7494465666308233 0.6239579437485031 F F F
0.2505578331940891 0.8748235811409711 0.6239569622043196 F F F
0.5006563931849211 0.7491526012207168 0.4998364445637670 F F F
0.6255350465620712 0.8744532538542008 0.5001144969453167 F F F
0.6254735227974729 0.7497778032692974 0.6247092782173651 F F F
0.5003646989439592 0.8744815880044849 0.6242034858849369 F F F
0.7500427366540768 0.7494084985657815 0.5005831575677512 F F F
0.8750221678125824 0.8745673990456676 0.5008073398332216 F F F
0.8753614219288371 0.7501642133567231 0.6255478062080558 F F F
0.7508554754696045 0.8749943775219060 0.6256470089031286 F F F
0.6254005438012573 0.5006774655320800 0.8738949052529577 F F F
0.6254814421702820 0.6253393610705041 0.7491216354471441 F F F
0.5005994386847433 0.5006683693780583 0.7486756675218192 F F F
0.2505970146157798 0.6249054056646661 0.8736415161918303 F F F
0.2465603319165067 0.0022679243083638 0.7485264419981222 F F F
0.3754420605162315 0.1259652324685457 0.7485818191001933 F F F
0.3765479460071887 0.0009978726771403 0.8737808255459490 F F F
0.2505800794305869 0.1250406763700846 0.8734310358881108 F F F
0.5006210323602243 0.0003726914497422 0.7487520967538842 F F F
0.6251879313814488 0.1257746687128845 0.7489508852582623 F F F
0.6252498392241422 0.0008163521082905 0.8743261978548517 F F F
0.5000379454178334 0.1262637637726753 0.8736719533690190 F F F
0.7524540610024277 0.0003569267442993 0.7518826137303827 F F F
0.8745766246260748 0.1262695089624229 0.7520421951449350 F F F
0.8761021713438598 0.0017965824717926 0.8812789311420673 F F F
0.3756391326232176 0.5003094577047823 0.8736679471195034 F F F
0.0008243000343089 0.2481053184916335 0.7513911252059827 F F F
0.1253627555061192 0.3753893404475018 0.7491150056000614 F F F
0.1250707652318575 0.2499772569853259 0.8743167719118261 F F F
0.0002618267835759 0.3754512491231706 0.8741510446365159 F F F
0.2510298313583090 0.2513026160713298 0.7487526047728593 F F F
0.3758102923725994 0.3757847514514382 0.7488059702564019 F F F
0.3753392737281254 0.2508033170961110 0.8737178317551036 F F F
0.2505894556469583 0.3754220925327783 0.8735447323625819 F F F
0.5004160666026534 0.2512101490085952 0.7485106215884475 F F F
0.6254763707971763 0.3759886369760440 0.7490541264848756 F F F
0.6249319419982879 0.2511627865499786 0.8737188042422523 F F F
0.5005311874537979 0.3760646795339578 0.8733184126901794 F F F
0.7497581991926018 0.2513666879850362 0.7489809087961760 F F F
0.8752100487148874 0.3754444991113349 0.7491778026176491 F F F
0.8750150324080890 0.2510930589449739 0.8745073882667519 F F F
0.7499245418398144 0.3763446822799416 0.8737466122519508 F F F
0.0002372230149771 0.5009730405926234 0.7496585249142205 F F F
0.1252052043697983 0.6251509913638517 0.7493976221684371 F F F
0.1255291855129155 0.4998162788004171 0.8738635778734344 F F F
0.0003129687661642 0.6269341840487247 0.8758188584460996 F F F
0.2507647935681099 0.5001901579212297 0.7487000398790944 F F F
0.3756883266500938 0.6249182828274155 0.7489434037060737 F F F
0.9991113888494859 0.1184400431468042 0.1104778760608237 F F F
0.2445621834870772 0.8767467764672187 0.8756881201260089 F F F
0.8741569001756988 0.1247167707788997 0.2483361732896166 F F F
0.0048719020490122 0.9997501195392123 0.7576372312011863 F F F
0.1221201036676117 0.8748247107619764 0.2430779172212180 F F F
0.8776509762523892 0.8728069162779468 0.2487318229430669 F F F
0.1266947337777587 0.1279471861848581 0.7494742948067026 F F F
0.1237905134737782 0.1254563630476210 0.2480032510727905 F F F
0.7491975992655098 0.8743488661806609 0.1254707033076394 F F F
0.0014136137349315 0.9469491595016007 0.0542194608598966 T T T
0.1257209854815286 0.8725489996666512 0.7473728958502686 F F F
0.1233770342738906 0.7478235304642348 0.8748945635587013 F F F
0.7471657875618859 0.1264392764853475 0.8730649916114608 F F F
0.1298972322849649 0.8684261479039076 0.0055931021131274 F F F
0.0005288281308148 0.2526136885409399 0.9971992263281828 F F F
0.8673727130292154 0.9967782525833121 0.1259206789808891 F F F
0.1225402574333389 0.0043414484253931 0.8865369609276941 F F F
0.8671262101685062 0.1274160378727541 0.9961329913674373 F F F
0.2540116468950343 0.1275464744900040 0.1248447929011630 F F F
0.2545804193123520 0.0023404027084734 0.9987517062624457 F F F
0.9998313351906685 0.1233864884688588 0.8858310615404146 F F F
0.1313795612179988 0.1287910100167273 0.9984875649560814 F F F
0.8756468435328782 0.8754122574492759 0.7518469874117417 F F F
0.8763284855451602 0.7509094458147766 0.8748521984372968 F F F
0.0030957569680250 0.8790932088737987 0.8850979630426163 F F F
