#comment
1.0
16.184 0.0 0.0 
0.0 16.184 0.0 
0.0 0.0 16.184 
Al Mg 
240 15 
selective
Direct
0.9969076194816601 0.9982093000186687 0.9947499848243994 F F F
0.1248649159596143 0.1258503302401919 0.9899025394524128 F F F
0.7496951958011036 0.8743653020265767 0.8735282264456984 F F F
0.8743603643065674 0.7497184562620038 0.8735606419879434 F F F
0.2510070807099458 0.9968238379268101 0.9922282656564561 F F F
0.3770343592341087 0.1256834725420892 0.9941520631051141 F F F
0.8739492980435396 0.8741855000989069 0.7492937173804457 F F F
0.7496532797232807 0.7500045782012936 0.7489072274336848 F F F
0.5026507883580129 0.9989099460287916 0.9961946373910266 F F F
0.6265099557270439 0.1249332755987267 0.9970673163698568 F F F
0.6259806725072360 0.9993192543257746 0.1227413355424377 F F F
0.5045195877694058 0.1252279809466459 0.1215803106591586 F F F
0.7498290146732178 0.9993060084014707 0.9977658732754709 F F F
0.8733908100329035 0.1250569785313640 0.9964147453951464 F F F
0.8746867647667408 0.9998659839191218 0.1222137125418644 F F F
0.7497183934592212 0.1245937806734383 0.1228167387111384 F F F
0.9999408887949096 0.2511667486955551 0.9904040453003948 F F F
0.1253146134301143 0.3762536710541539 0.9921254335081930 F F F
0.5011809035350306 0.8740745325616551 0.8730335314021453 F F F
0.6253159851203492 0.7497411298726948 0.8733996955643817 F F F
0.2477503034288710 0.2514087527991062 0.9956776323352904 F F F
0.3767364390834327 0.3767572691732760 0.9962764245446109 F F F
0.6252215772821563 0.8743294404856015 0.7490838610291758 F F F
0.5007819946685033 0.7497745505201957 0.7491700837844029 F F F
0.5012932297031237 0.2509307200681019 0.9978136549460700 F F F
0.6257351531843204 0.3761489919553924 0.9976819085358748 F F F
0.6269554558624980 0.2508107576040046 0.1227287608355261 F F F
0.5026228967795485 0.3770470885699171 0.1222306493677641 F F F
0.7493842115343851 0.2507090058818318 0.9971674338333142 F F F
0.8741230143895130 0.3760776053987195 0.9971110075303566 F F F
0.8719425061632337 0.2508724826675345 0.1222227658221619 F F F
0.7496548619105482 0.3762329040744909 0.1226792573671266 F F F
0.9986397473444276 0.5012326555902610 0.9967732279393829 F F F
0.1242861302281217 0.6265520045073666 0.9963272494344442 F F F
0.1232656413701216 0.5069230438318529 0.1205462129852564 F F F
0.9981949984806326 0.6262103474575971 0.1224866375008928 F F F
0.2508634354538422 0.5034599227812290 0.9951374629081086 F F F
0.3763135820290166 0.6258210112299866 0.9972887119111085 F F F
0.3780420992900397 0.5038331497080775 0.1216884271536923 F F F
0.2506852789196977 0.6265144788891023 0.1224824862658723 F F F
0.5015181727050519 0.5011713474089340 0.9974226630722055 F F F
0.6253229835723998 0.6251893063502884 0.9978786818567777 F F F
0.6256453212881410 0.5008380435109624 0.1227401164192200 F F F
0.5015587165833253 0.6257196634822894 0.1227606737247103 F F F
0.7497741939905889 0.5007371320374477 0.9978128327643601 F F F
0.8741470411298036 0.6250428845777086 0.9978105947014168 F F F
0.8746760537160925 0.5001602494171431 0.1221558096999794 F F F
0.7499376028308119 0.6249604960605704 0.1224967025514739 F F F
0.9984302887325172 0.7492389725551247 0.9974231526824334 F F F
0.1240729172001880 0.8712364130139089 0.9947845879537065 F F F
0.1240684794320773 0.7489056892227361 0.1228373718426808 F F F
0.9965023089718750 0.8715948562522580 0.1222305369893831 F F F
0.2504856409684943 0.7484954400185093 0.9967452088244619 F F F
0.3765326665430496 0.8723371502342477 0.9959398025634610 F F F
0.3763965381731294 0.7490833153333608 0.1225371868882389 F F F
0.2508046839943754 0.8695681136216493 0.1216247478456256 F F F
0.5013220735213009 0.7493876732508056 0.9976158830712410 F F F
0.6257452660391607 0.8742252194701740 0.9976937355629816 F F F
0.6263309950486887 0.7495894508617533 0.1225017776313740 F F F
0.5029080108282764 0.8724532305627232 0.1225446339514801 F F F
0.7498506676352600 0.7497793526621453 0.9976564740721459 F F F
0.8735332142835307 0.8741078299664089 0.9975321030330589 F F F
0.8734165499094805 0.7494046914935540 0.1224774415081258 F F F
0.7499693995050095 0.8746761786915682 0.1224419955867056 F F F
0.9936155381833387 0.9945984363900542 0.2486339461098337 F F F
0.1189643685563173 0.1109562601162853 0.2521491202504028 F F F
0.2506317977743679 0.8731742069131926 0.8717957802586842 F F F
0.3763127769439684 0.7493834188091809 0.8728919131238205 F F F
0.2501275180910835 0.9905371719197809 0.2486842710055500 F F F
0.3847646322561033 0.1206950771738869 0.2485629724389091 F F F
0.3762196763780972 0.8741895387400017 0.7490845484874454 F F F
0.2506062198711920 0.7493731030380837 0.7486977310696763 F F F
0.5053077717510792 0.9975055259307489 0.2488897289011846 F F F
0.6278240780238938 0.1246063314436071 0.2488060892787991 F F F
0.6262045102455276 0.9987702959046042 0.3749678122772597 F F F
0.5055560514841861 0.1242891021196860 0.3762148451285230 F F F
0.7490553474458062 0.9986723821349509 0.2485134805693461 F F F
0.8707460607796498 0.1238895369156523 0.2479184396063027 F F F
0.8717070113904357 0.9970298582121699 0.3754202296017266 F F F
0.7495692893874148 0.1241434554328495 0.3746545921580843 F F F
0.9937607640973176 0.2502600310650862 0.2516211784342134 F F F
0.1216739224686135 0.3958550379306687 0.2526463290727459 F F F
0.9984161309775292 0.8739482249416717 0.8727247683138653 F F F
0.1241866978909598 0.7492118810443071 0.8725859160308709 F F F
0.1728927863559475 0.2530022349235816 0.2023250122459343 T T T
0.3820509215559149 0.3839399803341002 0.2484819775909488 F F F
0.1244507225503776 0.8738809806935459 0.7491495050840585 F F F
0.9986620062897331 0.7496815737170572 0.7493466901130357 F F F
0.5068351526679231 0.2513309222452156 0.2481786921253879 F F F
0.6269978248403317 0.3768187739691966 0.2488444814334641 F F F
0.6267021170908483 0.2508101954814508 0.3748421784229694 F F F
0.5035344741172606 0.3778989141307774 0.3754230314079757 F F F
0.7486853102700510 0.2505259786481654 0.2488078914433952 F F F
0.8715421839481051 0.3770423601569832 0.2479412963346705 F F F
0.8698628523248042 0.2508957182368777 0.3764171695875925 F F F
0.7494522385052775 0.3767082007646040 0.3748647320406730 F F F
0.9948118230695985 0.5056764373273782 0.2482201348133484 F F F
0.1238731521009785 0.6271233039101252 0.2493494797432725 F F F
0.1243305189235907 0.5069190097048357 0.3792689321269375 F F F
0.9981559413749805 0.6260936043923959 0.3753250627923874 F F F
0.2524045371909817 0.5087693132628772 0.2491166917008336 F F F
0.3774098993349598 0.6271769495342789 0.2488803259163547 F F F
0.3778301669886452 0.5035684473287871 0.3759343345177510 F F F
0.2509687106633564 0.6268383871548798 0.3754615068722429 F F F
0.5030045956191319 0.5029108571267394 0.2488240851674447 F F F
0.6262884877912323 0.6259879167230002 0.2485873344043326 F F F
0.6258080157562222 0.5014483228260699 0.3748332508956776 F F F
0.5014541534842576 0.6255993598969167 0.3749661475576189 F F F
0.7490949086487226 0.5015896918086904 0.2485032826756693 F F F
0.8723740556947950 0.6268770389532817 0.2485665895219338 F F F
0.8718614808082055 0.5029704614637573 0.3754313235204317 F F F
0.7491469743458230 0.6260337433425593 0.3750868986429026 F F F
0.9980254957038930 0.7484375142121820 0.2490101452058920 F F F
0.1229919449692800 0.8686889384695278 0.2491862319534027 F F F
0.1240177256478603 0.7490349770046372 0.3752687655930815 F F F
0.9966092052083397 0.8718571277990222 0.3756385575446632 F F F
0.2503313259202022 0.7477166154148701 0.2489319957003392 F F F
0.3777398124074016 0.8696845569251607 0.2488831241899442 F F F
0.3766788700429347 0.7491209211627576 0.3753203241165589 F F F
0.2510891139970296 0.8694730413079760 0.3762709439661444 F F F
0.5020798607584745 0.7487665880408493 0.2488091877216907 F F F
0.6269445742230515 0.8731871959169449 0.2487371677139497 F F F
0.6257746880445596 0.7494943395903754 0.3750259601049188 F F F
0.5028334185102907 0.8724699603373893 0.3752786999458413 F F F
0.7491469962916111 0.7496122061119184 0.2485230798967946 F F F
0.8719504377952600 0.8723374260167164 0.2486846719338996 F F F
0.8733780128659037 0.7493760012489407 0.3750420413376734 F F F
0.7491321373609218 0.8735361534457939 0.3752590196960115 F F F
0.9968061175843281 0.9967466206284349 0.5041768568497886 F F F
0.1247698451266789 0.1242181295556677 0.5068554618947096 F F F
0.1244185309332716 0.9980948437073395 0.6264257556762103 F F F
0.9981678635365421 0.1241048407999563 0.6263606184305802 F F F
0.2513263683264974 0.9980695202666557 0.5048465329616714 F F F
0.3778978894874798 0.1249199453201651 0.5037981650490994 F F F
0.3768270629979674 0.9987805628381190 0.6257694637562713 F F F
0.2512363317673024 0.1245733651207774 0.6269839590252568 F F F
0.5028185484233532 0.9984447020200752 0.5019642616780529 F F F
0.6266234586199929 0.1247034274394338 0.5010341405868594 F F F
0.6255513984190043 0.9985684736377529 0.6249408960372065 F F F
0.5018243125093151 0.1246648618847757 0.6253859668542543 F F F
0.7491552028869232 0.9985744937748081 0.5005417435724215 F F F
0.8711285044033201 0.1244853714229699 0.5031044974005360 F F F
0.8731669638755664 0.9984110193153961 0.6256864176239056 F F F
0.7488264801944622 0.1242954547891667 0.6255386113237693 F F F
0.9968085813110799 0.2508606509009559 0.5056487162560237 F F F
0.1249753548341456 0.3782016617048424 0.5044970441438483 F F F
0.1246658299673536 0.2510366790658873 0.6267241966332221 F F F
0.9984867424695724 0.3769842838796983 0.6256643818286985 F F F
0.2516984092683222 0.2510686218990097 0.5040118471357283 F F F
0.3775329093369296 0.3774024719291751 0.5014500019003859 F F F
0.3770476373225651 0.2510677312771561 0.6254081147486907 F F F
0.2512361184541156 0.3769338148183662 0.6253863388161327 F F F
0.5024527380119856 0.2508929283009945 0.5010040621589228 F F F
0.6257638693808512 0.3764604624925537 0.5003067302049108 F F F
0.6252510039805511 0.2509363684396472 0.6250888013965528 F F F
0.5013751880588950 0.3764854734885813 0.6249087147007898 F F F
0.7481893530365517 0.2507581351044084 0.5011787745049462 F F F
0.8719469564568489 0.3766344314586047 0.5023343423343122 F F F
0.8728138887249707 0.2508945596245947 0.6262831532968467 F F F
0.7489457595948190 0.3766917538268018 0.6252704532806378 F F F
0.9981552836110192 0.5031213036013317 0.5025657720222383 F F F
0.1245973767241079 0.6272757257992633 0.5020335757469150 F F F
0.1246298436163156 0.5020020956546249 0.6255741355211598 F F F
0.9984618359978952 0.6260326016633126 0.6251632781439291 F F F
0.2512291539346065 0.5022294688475943 0.5012157972244370 F F F
0.3764089469025456 0.6257196927524793 0.5005238050504619 F F F
0.3765045818437405 0.5012413820825070 0.6249780120728430 F F F
0.2508974039929917 0.6254189758510068 0.6249677775786187 F F F
0.5017479453612226 0.5016617272648636 0.5005776175622965 F F F
0.6251747156577283 0.6254345991376041 0.4999597255733180 F F F
0.6251455745212744 0.5010708871479032 0.6246069635758961 F F F
0.5007545263153804 0.6252850871628552 0.6246603760172619 F F F
0.7491164328414790 0.5014313500686157 0.5003928381285206 F F F
0.8736189826176581 0.6258410557973365 0.5003789890198589 F F F
0.8735394222550694 0.5014713648615741 0.6252688540004372 F F F
0.7494692987008822 0.6254745538886489 0.6245851875555537 F F F
0.9984066383725937 0.7493393810963532 0.5005378108962590 F F F
0.1244383741105567 0.8709203244673654 0.5034221698075190 F F F
0.1242826335883974 0.7493257000043617 0.6259082995602698 F F F
0.9982858143144867 0.8732306185841519 0.6257165414917207 F F F
0.2507983736703023 0.7485593892987393 0.5014903767755319 F F F
0.3766059913873341 0.8724302166378464 0.5020765492804433 F F F
0.3766970854556790 0.7493733835560556 0.6250847302497724 F F F
0.2509200780676670 0.8733180518972344 0.6259613959572822 F F F
0.5013285474222012 0.7493253073891123 0.5002122047087961 F F F
0.6255474104931545 0.8739025342402309 0.5002513960653108 F F F
0.6254521649526926 0.7496930532591893 0.6245989310074903 F F F
0.5011894472331947 0.8738610411114236 0.6251050903958412 F F F
0.7496637080466357 0.7497843389490343 0.5001953896476690 F F F
0.8732077878274164 0.8734675754272838 0.5006795521369518 F F F
0.8740926751220526 0.7497930426913095 0.6246941082687808 F F F
0.7495570148187425 0.8742359915015083 0.6247280930802062 F F F
0.9988453668167250 0.9987750908774872 0.7490145446785108 F F F
0.1246600614356757 0.1245439319833701 0.7483032488362723 F F F
0.1242335657052091 0.9989123933977837 0.8719957112064480 F F F
0.9982834538039776 0.1241696369760759 0.8708621567792750 F F F
0.2505361500855423 0.9993499851229118 0.7490940999323839 F F F
0.3764274336687771 0.1248404224207418 0.7488451522314445 F F F
0.3768926423351581 0.9988958444313997 0.8722936833951654 F F F
0.2513250148653903 0.1249074672514952 0.8705612614737346 F F F
0.5012110490971556 0.9991940399780145 0.7490939753627489 F F F
0.6254622215104776 0.1247004475391019 0.7492382029864596 F F F
0.6257153958065778 0.9988909938795538 0.8731899410700520 F F F
0.5014502941385962 0.1249433822531687 0.8728242485251383 F F F
0.7494938338375539 0.9988688786732939 0.7492396111743215 F F F
0.8736109155699374 0.1246858924774618 0.7489928339419794 F F F
0.8733764834342346 0.9988013454956606 0.8726439754455796 F F F
0.7496239338447344 0.1245967521536281 0.8731912951986067 F F F
0.9991888528082422 0.2506422049950471 0.7484077840589307 F F F
0.1247567875655114 0.3764994793596999 0.7482988460597600 F F F
0.1252493526749690 0.2509836685492274 0.8692413567144791 F F F
0.9986848517778228 0.3769890317210475 0.8713460512510992 F F F
0.2509768081174479 0.2508213482168887 0.7481037190004324 F F F
0.3762189575763417 0.3761437331676251 0.7487409223221198 F F F
0.3755560236227088 0.2510886715310792 0.8728338238525380 F F F
0.2513262411242043 0.3765644131045453 0.8717062811944227 F F F
0.5006374230290679 0.2506857712711668 0.7492677851807946 F F F
0.6251273348180727 0.3762437879194103 0.7492095933932910 F F F
0.6252148412963228 0.2509125619229390 0.8735880505128544 F F F
0.5010197363245666 0.3761722984426631 0.8732242434635866 F F F
0.7488725145070670 0.2506752763338720 0.7492546814331481 F F F
0.8738404261239019 0.3762288553976940 0.7490209910635262 F F F
0.8736216975983327 0.2508242627695816 0.8723714917526901 F F F
0.7497152933465873 0.3763669186849739 0.8733627750700583 F F F
0.9989602401661991 0.5013488530070708 0.7488469956559187 F F F
0.1245214565355175 0.6254727746150313 0.7490133690922319 F F F
0.1244170676019728 0.5011771930460385 0.8726110568508039 F F F
0.9986925010058477 0.6250825896081488 0.8732583880962956 F F F
0.2505448432489901 0.5008183991578541 0.7489333208223087 F F F
0.3761168842495752 0.6251861566754123 0.7490113802021848 F F F
0.3766299207198605 0.5010854577509251 0.8728243031090293 F F F
0.2505513180598702 0.6255622413818785 0.8725571118890565 F F F
0.5008786406412302 0.5007823731110228 0.7489904938320975 F F F
0.6250148197389745 0.6251644913832994 0.7490714714649627 F F F
0.6252943944481657 0.5007754323518142 0.8734214148962779 F F F
0.5007747613528144 0.6251680059033078 0.8733562602331080 F F F
0.7495935791399054 0.5009896685435580 0.7492247821269455 F F F
0.8741539704073915 0.6254174052878824 0.7492541969335482 F F F
0.8738743536131350 0.5010742173428201 0.8730532640662616 F F F
0.7496217755476892 0.6253995840383935 0.8736229568426291 F F F
0.2507005768614427 0.3769452662814223 0.3704244853576685 F F F
0.3782264996465700 0.2507505070102903 0.3700545477434602 F F F
0.9965383735675553 0.3783068506383899 0.3768345704980020 F F F
0.1234069698089134 0.2506421351020361 0.3763093107024835 F F F
0.2503912873917260 0.1262833667420962 0.3704665518432033 F F F
0.3771664028426461 0.9973636347740308 0.3757455284931614 F F F
0.9948609982944616 0.1234128409811035 0.3780854430636271 F F F
0.1244691299631028 0.9940108397482121 0.3789871041220140 F F F
0.2480416212480926 0.3819085378811955 0.1229231084903358 F F F
0.3725267337358500 0.2509127804887515 0.1292824679238790 F F F
0.0070458801927693 0.3687231906099381 0.1225933907904442 F F F
0.1232226246820072 0.9936794924073119 0.1199716995426650 F F F
0.2467867362724154 0.1226659851541311 0.1222191853922035 F F F
0.3770943807467788 0.9973725046290088 0.1218966098839157 F F F
0.0050958225672981 0.1327751592077430 0.1209589443231549 F F F
