#comment
1.0
16.184 0.0 0.0 
0.0 16.184 0.0 
0.0 0.0 16.184 
Al Mg Zn 
253 1 1 
selective
Direct
0.1258319353137550 0.9994279915317460 0.1279918228565080 F F F
0.0007420235361764 0.1254175408557000 0.1279203106722090 F F F
0.2486952752022870 0.0007617274084097 0.0003944321628495 F F F
0.3749187922633940 0.1248105543012700 0.0003581099992616 F F F
0.3754253741167090 0.9999112943886530 0.1253770433456790 F F F
0.2493527074185170 0.1251361762358130 0.1249740301840350 F F F
0.5004726666950819 0.9999614805663700 0.0004031398417368 F F F
0.6258121106178220 0.1249296717320620 0.0003784419872801 F F F
0.6258477857038049 0.9998613819730340 0.1254803204589190 F F F
0.5004162635000210 0.1249613125271910 0.1253876373761140 F F F
0.7512468796363190 0.0001192563130061 0.0003863399642299 F F F
0.8775496774679610 0.1243706933881510 0.0003031684292978 F F F
0.8766388371241191 0.0000867141876171 0.1249463144059110 F F F
0.7509575480352670 0.1250279644545100 0.1254025946516960 F F F
0.0015194938601084 0.2482941644247060 0.0005158635182099 F F F
0.1254467161569370 0.3740319360841870 0.0006103404844282 F F F
0.0008639116286702 0.3743106807747840 0.1254229076987200 F F F
0.2486620260413590 0.2484792314448750 0.0005406028672184 F F F
0.3747988766448320 0.3742543023756470 0.0004257148300510 F F F
0.3754189328408300 0.2498624460037250 0.1252969223598800 F F F
0.2502004246348260 0.3743465840984190 0.1253458949559490 F F F
0.5002744859842641 0.2498604773096030 0.0003710270868496 F F F
0.6256440836411770 0.3748945758892430 0.0004346561936117 F F F
0.6256784314766149 0.2500237209450800 0.1254280556274590 F F F
0.5002394646746420 0.3748743401271990 0.1253121281004400 F F F
0.7511055099941690 0.2496282647637640 0.0003500482003602 F F F
0.8760267532157830 0.3745950567489090 0.0003702064186228 F F F
0.8752345591325150 0.2503669589295970 0.1257198537394690 F F F
0.7507095741066721 0.3749602099429130 0.1254044116976370 F F F
0.0006429570781066 0.4996165957248380 0.0004026802365047 F F F
0.1257029031623770 0.6248789809462280 0.0003804283259825 F F F
0.1256679775629830 0.4996371817439710 0.1254478499301750 F F F
0.0006092488052261 0.6248496903780349 0.1255123220857680 F F F
0.2505562712819300 0.4995569201136120 0.0004183534367641 F F F
0.3756079614805470 0.6248480852889950 0.0004841698642082 F F F
0.3754658812336940 0.4995573354062510 0.1253485112184550 F F F
0.2507644190974220 0.6248063771710550 0.1254520514094470 F F F
0.5003865195749170 0.4997275244571780 0.0005014122025457 F F F
0.6258953063606540 0.6250940794260770 0.0005433720583596 F F F
0.6256219930712560 0.4999758244739070 0.1254495742416000 F F F
0.5006316234296480 0.6248442456850331 0.1254364208141680 F F F
0.7507471735237700 0.4998656726468340 0.0004627183586976 F F F
0.8758030253132670 0.6250783175219110 0.0004495955848967 F F F
0.8756584049963509 0.4997022217728000 0.1254320091800380 F F F
0.7508426185871711 0.6250757359261030 0.1253564936548630 F F F
0.0008675508081950 0.7503109523381820 0.0003720571335109 F F F
0.1250384011582710 0.8765655104288330 0.0002651516546379 F F F
0.1258281293178600 0.7499937537604500 0.1254556492861100 F F F
0.0007473279136718 0.8758633840123980 0.1249359582618940 F F F
0.2504397593252250 0.7502535916787140 0.0003865816465023 F F F
0.3752979692869620 0.8753427334206590 0.0004215772649587 F F F
0.3757323763736620 0.7499214534671100 0.1253988744749250 F F F
0.2511287903458450 0.8745648600101180 0.1256859022313530 F F F
0.5006506974057600 0.7500125927723860 0.0005002721745555 F F F
0.6259479739577500 0.8750477075985610 0.0004977513553968 F F F
0.6259590247341360 0.7500008040627860 0.1253676185936710 F F F
0.5005848643536550 0.8748909036739430 0.1254443939945280 F F F
0.7514383557289360 0.7506343433403440 0.0005039881272424 F F F
0.8773578965300290 0.8766064444455000 0.0004009466345138 F F F
0.8758055138466790 0.7501338181926580 0.1253709296887560 F F F
0.7509942677636020 0.8750653489376390 0.1253986418147330 F F F
0.0002738752437423 0.9996290793342770 0.2518182879716160 F F F
0.1260502495246740 0.1255698121810700 0.2512642800959950 F F F
0.1259142029692630 0.9998435694422840 0.3757089591942700 F F F
0.0004904206497542 0.1250780911657830 0.3756599524684530 F F F
0.2510522929265660 0.9998386043762220 0.2509552030109670 F F F
0.3751682973826360 0.1248898260579030 0.2500022316692280 F F F
0.3760744662466280 0.9998709104954669 0.3752988042139760 F F F
0.2510770078118090 0.1249155168717020 0.3753612531616990 F F F
0.5005095256731380 0.9999675456086550 0.2502627626314650 F F F
0.6257898597418150 0.1248798514333770 0.2503167979669530 F F F
0.6257879523619539 0.9998825396178080 0.3751658272383410 F F F
0.5006000588110520 0.1249508506922080 0.3751353635119660 F F F
0.7512361484550920 0.0000237979574891 0.2500770905812080 F F F
0.8754864182239290 0.1251163636699960 0.2509817260928100 F F F
0.8753422834453770 0.9999171660096590 0.3755705809362130 F F F
0.7503905837877060 0.1249754912619640 0.3753821791776770 F F F
0.0009289049749910 0.2502670127667410 0.2505693009860220 F F F
0.1256310270039830 0.3741326419872100 0.2496908502986340 F F F
0.1257614783013570 0.2501957614480830 0.3754572387398410 F F F
0.0006092623164378 0.3752109408342930 0.3752835890850290 F F F
0.2504691984831950 0.2501013039910300 0.2501222450625990 F F F
0.3755130353651170 0.3749206818053780 0.2503530384129460 F F F
0.3756011799111790 0.2499102093504250 0.3750479584152370 F F F
0.2507097473013220 0.3749480764402410 0.3751120002918710 F F F
0.5003079847709980 0.2499042991897650 0.2503072885290220 F F F
0.6255530096918700 0.3749436295546790 0.2504257658851690 F F F
0.6255114363958680 0.2499907437072010 0.3753684366448130 F F F
0.5005032988472000 0.3748787053634710 0.3752818101221110 F F F
0.7506983503452390 0.2499732299772430 0.2504923931114720 F F F
0.8756629359826750 0.3749884246710590 0.2505323827513450 F F F
0.8755591528349100 0.2501129139715200 0.3751763403882720 F F F
0.7506334257635600 0.3749191463612220 0.3752810812039940 F F F
0.0006685788886429 0.4996353716420360 0.2503671249104260 F F F
0.1256756021405250 0.6248764265832421 0.2503400801589920 F F F
0.1256969902271550 0.4997286865005890 0.3751727152520560 F F F
0.0006556774008928 0.6248602163105020 0.3752326516139420 F F F
0.2506569779564960 0.4996309374253510 0.2503754995424860 F F F
0.3756688606130330 0.6247758162018761 0.2503953641976650 F F F
0.3756428626674190 0.4998339314654170 0.3753271251255370 F F F
0.2507579823695920 0.6247433574101320 0.3753478116546770 F F F
0.5005327256870160 0.4998181121686260 0.2503918903404810 F F F
0.6257393071355890 0.6249498015614210 0.2503954884319130 F F F
0.6256406531929100 0.4998516038328590 0.3752957849714210 F F F
0.5006988863047540 0.6249239411483740 0.3753070880973010 F F F
0.7507110350110300 0.4999185141200540 0.2504158622068290 F F F
0.8757470377122090 0.6249993322656811 0.2503607545088900 F F F
0.8755772680746010 0.4999569930395400 0.3753881774760760 F F F
0.7507309859492390 0.6249714892519760 0.3753021464889490 F F F
0.0007448211164416 0.7503466730026530 0.2501111919774100 F F F
0.1259078962635130 0.8746045624595600 0.2510878830318360 F F F
0.1257492899794100 0.7495989057825340 0.3754502895915760 F F F
0.0006713578269881 0.8746411117317550 0.3755849106173060 F F F
0.2508537220627290 0.7498594493243760 0.2505144434299920 F F F
0.3757544496805560 0.8748924811926240 0.2504715141362720 F F F
0.3757459719598020 0.7498590184915200 0.3752587190926280 F F F
0.2509904002329440 0.8747628272163940 0.3753040097685200 F F F
0.5007148185769310 0.7499219933719350 0.2503543650230710 F F F
0.6259271371463060 0.8749887563737671 0.2503039401830380 F F F
0.6258298374891920 0.7499592945034550 0.3752513738287890 F F F
0.5008817323633680 0.8748330307902350 0.3752499594962590 F F F
0.7508234880327440 0.7499314928552960 0.2502812784407670 F F F
0.8755345621097770 0.8748036753120940 0.2506390157664600 F F F
0.8757360390477090 0.7498739170417820 0.3751806368352890 F F F
0.7507014424394500 0.8749028137251930 0.3751838357580370 F F F
0.0004944790597250 0.9997574856960800 0.5002974385817750 F F F
0.1259686462288490 0.1251122176581350 0.5001528527610550 F F F
0.1259592505333910 0.9997405096405810 0.6248263141344950 F F F
0.0004771422273109 0.1251012616650580 0.6247741886053150 F F F
0.2512784150365800 0.9997352740640790 0.5002331312329740 F F F
0.3761260505101090 0.1250014695685810 0.5002487092342990 F F F
0.3760845842550820 0.9998807026500030 0.6253536278981220 F F F
0.2511735017776220 0.1249178135199140 0.6250355074072760 F F F
0.5009532546842050 0.9998866876928501 0.5003941875004900 F F F
0.6254690783920790 0.1250033789491600 0.5003847547256650 F F F
0.6257754842646150 0.9999737198097020 0.6256685407998430 F F F
0.5006038370522670 0.1249992253101200 0.6256201301778010 F F F
0.7502958988995300 0.9998713514762300 0.5004363064594560 F F F
0.8752156815684200 0.1251638060527820 0.5002617581887420 F F F
0.8753731428337590 0.9999534545122660 0.6251373565210020 F F F
0.7503715681355270 0.1250217729375360 0.6254168372813990 F F F
0.0004438279721626 0.2504062852991990 0.5001705189792600 F F F
0.1257997764497320 0.3752913442881580 0.5002121439846190 F F F
0.1257503731601450 0.2502696293020610 0.6249951865456960 F F F
0.0005626598140793 0.3752352869795960 0.6253421576565690 F F F
0.2511117149765740 0.2502189095884260 0.5001989945057160 F F F
0.3756796148008730 0.3749483202704340 0.5003959741085070 F F F
0.3757736171352310 0.2499475706321590 0.6256006847292920 F F F
0.2507223426020530 0.3749914520567190 0.6255812521584190 F F F
0.5006164239214210 0.2500380202833770 0.5003504437249330 F F F
0.6255736505312161 0.3750149858000640 0.5004508832145620 F F F
0.6255149972879650 0.2500174081176070 0.6255481947927560 F F F
0.5005356552976040 0.3749013593553200 0.6256346157510180 F F F
0.7504353919455720 0.2501353156858030 0.5003392508002800 F F F
0.8753816287005310 0.3750990191541210 0.5003751448742620 F F F
0.8753718773998570 0.2501114482534490 0.6254047444974590 F F F
0.7505967658511570 0.3749330807109170 0.6256180437430170 F F F
0.0005848164705711 0.5000329056860270 0.5003592804947700 F F F
0.1257341374419450 0.6246899345795920 0.5003525368327360 F F F
0.1256958067912210 0.4999003131354770 0.6255679671470350 F F F
0.0006816333595197 0.6249382594445620 0.6255841373901210 F F F
0.2507878090804350 0.4999341322862490 0.5003804547608300 F F F
0.3758050747486760 0.6249213202915840 0.5004951380272400 F F F
0.3756341795044800 0.4998565867414650 0.6256143628825440 F F F
0.2507313724105560 0.6248359095472010 0.6255339589119300 F F F
0.5005508917598930 0.4997903465435700 0.5004844086252620 F F F
0.6258455154531150 0.6250085976955830 0.5004209317795441 F F F
0.6256428919516070 0.4999118706200750 0.6256659727447340 F F F
0.5006589511597570 0.6249522815687309 0.6256633310982240 F F F
0.7505278789613290 0.4999133334871640 0.5005140386777071 F F F
0.8755744382909680 0.6249286494467160 0.5004844150612230 F F F
0.8756024213094020 0.4999799623582750 0.6255518805926600 F F F
0.7507426836381370 0.6250020388511220 0.6256574919165060 F F F
0.0006444860233756 0.7495778519166690 0.5003603167883170 F F F
0.1259877766947280 0.8745363031677940 0.5002730536313250 F F F
0.1257733419146020 0.7496653341583011 0.6253703977394240 F F F
0.0007479252821554 0.8746554936047630 0.6251340407320430 F F F
0.2509469380228850 0.7497247557594520 0.5003552653990651 F F F
0.3760069945299800 0.8747056069218930 0.5003665957212250 F F F
0.3757085141751730 0.7499477287081430 0.6256222612448430 F F F
0.2509782012136200 0.8747888826561050 0.6253729768435859 F F F
0.5007224965510990 0.7498466833120290 0.5004407475531421 F F F
0.6257079892176590 0.8748503852231120 0.5004442290051050 F F F
0.6257789725633880 0.7500273426740520 0.6256747607175440 F F F
0.5008257889765770 0.8749136088173730 0.6255765468178400 F F F
0.7507338375494400 0.7499499351112680 0.5004513265640470 F F F
0.8754069592324070 0.8746599279043820 0.5004067462075950 F F F
0.8757539437114370 0.7499585055036490 0.6256410071919090 F F F
0.7507507210953930 0.8749698901309561 0.6256409663491950 F F F
0.0003461792081794 0.9996179461104830 0.7488680729551760 F F F
0.1261016861578170 0.1252950729349110 0.7487585473470940 F F F
0.1258770491671370 0.9997796136649700 0.8727032663618890 F F F
0.0005174285201406 0.1253034586855930 0.8727602514624310 F F F
0.2511371441629960 0.9998225000948150 0.7497447160405100 F F F
0.3752875625790320 0.1248920885541410 0.7507877260521810 F F F
0.3754023429937870 0.9999182247004090 0.8754285468940640 F F F
0.2495947812585940 0.1249854315232500 0.8758182154023400 F F F
0.5005871981929890 0.9999783707638200 0.7505131867846020 F F F
0.6258121723348610 0.1249516022751750 0.7505413214796950 F F F
0.6258271555819090 0.9999147995806080 0.8753876712022550 F F F
0.5004867826654900 0.1249732550526160 0.8753737243484420 F F F
0.7511456336630080 0.0000119674845536 0.7507352135455890 F F F
0.8753344558473090 0.1251422607906390 0.7497264680319230 F F F
0.8767311619426790 0.0001417199710616 0.8758190777850740 F F F
0.7508808023033420 0.1250591694739000 0.8753550754489440 F F F
0.0004195293320919 0.2503125562006260 0.7496437297890000 F F F
0.1255965168843860 0.3745648995560840 0.7506906335220980 F F F
0.1254858552584320 0.2491807261667490 0.8753448686275150 F F F
0.0005043887868510 0.3748332680003870 0.8753928436452439 F F F
0.2509006747063220 0.2500891257790560 0.7501254704696620 F F F
0.3756040795281240 0.3749336404611730 0.7506039085890420 F F F
0.3753668435474820 0.2498515765774560 0.8754891793963320 F F F
0.2505149074272880 0.3747255645072370 0.8755202424231070 F F F
0.5003835109673180 0.2499413434445050 0.7505921625382540 F F F
0.6255540233903570 0.3749465746567400 0.7506166446370770 F F F
0.6256858865477570 0.2500507833885170 0.8753680813054600 F F F
0.5002978242651470 0.3748747478044190 0.8756145503491340 F F F
0.7506293656403500 0.2500294628682480 0.7504296377085420 F F F
0.8755166448892450 0.3750249233153370 0.7503764207643751 F F F
0.8752734686906360 0.2503871075765080 0.8750248466230490 F F F
0.7506537003115530 0.3749891484647780 0.8755360597622260 F F F
0.0006608291560539 0.4997644793236660 0.7505120629531280 F F F
0.1256858568867260 0.6249867443009340 0.7505008579692219 F F F
0.1257399924193830 0.4997349725934870 0.8753704735518110 F F F
0.0006716259214059 0.6249975546277180 0.8753414269635300 F F F
0.2506722374831090 0.4997251632149540 0.7505502581624270 F F F
0.3756784235743280 0.6249152595055780 0.7505725850774210 F F F
0.3755312655039660 0.4996698669012430 0.8756008343860630 F F F
0.2508127171593700 0.6249586330073950 0.8754117357092430 F F F
0.5005929601007750 0.4998842363954520 0.7505843995547110 F F F
0.6257296088797090 0.6250056640366850 0.7506264239915980 F F F
0.6256064284742000 0.4999513113034200 0.8755867016298640 F F F
0.5006980975648790 0.6249536699599290 0.8756045185143860 F F F
0.7506339530451310 0.4999936714675290 0.7505672331215080 F F F
0.8757536176253420 0.6251675399882400 0.7505504228517590 F F F
0.8755709204026660 0.4998840362976650 0.8754113144668170 F F F
0.7507866094059570 0.6252185683777470 0.8756322224504201 F F F
0.0008448049473770 0.7504210988535150 0.7507290558186530 F F F
0.1259907347085090 0.8746775682739520 0.7496889112667799 F F F
0.1258634270686370 0.7500792016959180 0.8752939846033460 F F F
0.0008930723960177 0.8759577519834710 0.8757626516035090 F F F
0.2507653231040120 0.7499306623534420 0.7504122649116950 F F F
0.3757500061513710 0.8748679288855070 0.7503907632527320 F F F
0.3756951171718160 0.7499570580970670 0.8755709155087960 F F F
0.2511200936767110 0.8746355113016340 0.8750669418294810 F F F
0.5007256945034370 0.7499701796762750 0.7506163273270020 F F F
0.6259273552708750 0.8750019794579770 0.7506024252919800 F F F
0.6259696269000300 0.7500642098543440 0.8756981042230270 F F F
0.5006504348362810 0.8748815710231380 0.8754617939376100 F F F
0.7507633401306680 0.7499944311669540 0.7506333599100400 F F F
0.8755944445765920 0.8748003370344790 0.7502143886918730 F F F
0.8758739807197879 0.7501644967032490 0.8754857782688670 F F F
0.7509662119000280 0.8750527943003870 0.8755294098315790 F F F
0.0634651832123154 0.0631360238711096 0.0007143337398148 T T T
0.1255731832008140 0.2482256546557620 0.1238493569511190 F F F
