#comment
1.0
16.184 0.0 0.0 
0.0 16.184 0.0 
0.0 0.0 16.184 
Al Mg Zn 
240 13 2 
selective
Direct
0.9974133103804380 0.9975178227898249 0.9952187339291326 F F F
0.1242718080662348 0.1244812182683764 0.9911484529800164 F F F
0.7497451220825465 0.8740424540723944 0.8731260981965335 F F F
0.8745293229532406 0.7496695910483262 0.8729878342291462 F F F
0.2512965549492148 0.9979785750616765 0.9935154627416674 F F F
0.3784782582719385 0.1258261825777891 0.9941909129068730 F F F
0.8743981033112677 0.8738416381759826 0.7486793939721134 F F F
0.7500082078662469 0.7499901326123601 0.7487775789632087 F F F
0.5022953926627958 0.9991228268644049 0.9966387875955847 F F F
0.6254629119739339 0.1251126380654789 0.9975950695266668 F F F
0.6252241443873525 0.9996059514371343 0.1229693745491112 F F F
0.5022353452970169 0.1266978923061572 0.1223844711108175 F F F
0.7490581104680641 0.9990727454561149 0.9978198390309587 F F F
0.8716535139134767 0.1246359904289662 0.9960447267654340 F F F
0.8720368013612436 0.9974428398716122 0.1228202051151577 F F F
0.7485135643773908 0.1244677073831856 0.1230110648575751 F F F
0.9967396095330932 0.2510029484695077 0.9929516379942102 F F F
0.1246919067645145 0.3780859272541659 0.9929784917245971 F F F
0.5009731465473665 0.8739996056973383 0.8729418361491006 F F F
0.6253688618325602 0.7494980561597057 0.8732072151390791 F F F
0.2519300777371171 0.2513208842785864 0.9911559726826988 F F F
0.3780396327511295 0.3764617063500548 0.9956512825434942 F F F
0.6253154952907675 0.8741684290561565 0.7485395323150102 F F F
0.5006511884447404 0.7497504146848629 0.7487329159807435 F F F
0.5015457263062761 0.2509767936156681 0.9975760630855938 F F F
0.6252383665252673 0.3761700240414304 0.9981945438630515 F F F
0.6260673123157517 0.2510905122744116 0.1232685720811483 F F F
0.5007417382558625 0.3761589047776365 0.1226332738653579 F F F
0.7482477503043596 0.2508394033059957 0.9974595416726768 F F F
0.8721126580092357 0.3766650633163973 0.9964544288716821 F F F
0.8700570419715706 0.2511905032199475 0.1226670722482519 F F F
0.7498880976644074 0.3764969593253346 0.1238801022097288 F F F
0.9985784640591578 0.5027891233212234 0.9962136184294150 F F F
0.1246755048360967 0.6261784253060733 0.9973187077490705 F F F
0.1250467870550624 0.5038074791240913 0.1228736426055182 F F F
0.9990343108671620 0.6239801550422809 0.1243662787112445 F F F
0.2510004483947267 0.5026921019253622 0.9960338679842998 F F F
0.3764184304941975 0.6255863936595409 0.9976439884894679 F F F
0.3778638238926085 0.5026482293291767 0.1224507819553952 F F F
0.2508884732783477 0.6255903445062869 0.1230936368345065 F F F
0.5013356659733059 0.5011628002437034 0.9973945093159355 F F F
0.6252464367502218 0.6253764732721355 0.9976900050378060 F F F
0.6249800545125388 0.5007281501630337 0.1225813401855479 F F F
0.5012772371512787 0.6254884475457542 0.1227169729675186 F F F
0.7491882081597225 0.5010331240882981 0.9979190546845496 F F F
0.8737967073738144 0.6257490351427337 0.9978127435989635 F F F
0.8724028984398420 0.5029249712923508 0.1233065692252232 F F F
0.7491478311363954 0.6256962725471074 0.1227804147089251 F F F
0.9988633860510890 0.7489684194582379 0.9980603023138299 F F F
0.1244934540180816 0.8719276653282356 0.9961048105470134 F F F
0.1240578036421757 0.7486644111229541 0.1231346463032358 F F F
0.9975479441465865 0.8720773623981076 0.1230972572256302 F F F
0.2505965556629534 0.7485453885970605 0.9972220326849097 F F F
0.3763279615452495 0.8724405219402031 0.9965806851477813 F F F
0.3762744272003961 0.7488997577050248 0.1229768823279725 F F F
0.2506941279395770 0.8701776288331713 0.1222714058252460 F F F
0.5010438336279643 0.7493606713234241 0.9977860206818570 F F F
0.6256448701319464 0.8739886043660989 0.9978163674755053 F F F
0.6257830010244301 0.7494943672995191 0.1228438747734863 F F F
0.5025251934804376 0.8723307020518788 0.1228063168117604 F F F
0.7497666452807434 0.7498854017251846 0.9978656688436877 F F F
0.8736335583210085 0.8736117103063850 0.9977058518765045 F F F
0.8740947779409590 0.7492302059806967 0.1229577196162185 F F F
0.7491683267937755 0.8742183068829166 0.1229789517572726 F F F
0.9948136041978375 0.9951722937571088 0.2493451181535957 F F F
0.1231451399180752 0.1253145568501110 0.2498596930301197 F F F
0.2506515587971165 0.8732028427122804 0.8723407803234415 F F F
0.3762909943154329 0.7492791061877710 0.8729947060609182 F F F
0.2507775343979267 0.9941230439819833 0.2491753448750399 F F F
0.3813994800775415 0.1276192972988190 0.2483838460351131 F F F
0.3760033197018371 0.8739966575002415 0.7487891223274343 F F F
0.2506279242478344 0.7493831150829651 0.7488769285677783 F F F
0.5048449560865393 0.9987074121822380 0.2490288049650277 F F F
0.6267482045131538 0.1254364955266161 0.2489573624899225 F F F
0.6262959205997440 0.9994162408383004 0.3750337996821267 F F F
0.5037919988258226 0.1252575931498595 0.3756169628638327 F F F
0.7484553995792648 0.9988252483158805 0.2491929590950554 F F F
0.8690329369959023 0.1246852518039368 0.2493160527052377 F F F
0.8722997073079068 0.9977778792651107 0.3753778956122503 F F F
0.7503472693950928 0.1259176706354276 0.3750763331914668 F F F
0.9934155879463524 0.2554161308026523 0.2513831050293197 F F F
0.1250212231933287 0.3822256006456355 0.2499805407158031 F F F
0.9987569500224992 0.8732780088740308 0.8725794803086359 F F F
0.1243119773134747 0.7492566868062860 0.8727952279085658 F F F
0.2531467787405078 0.2554770356894812 0.2501451831489538 F F F
0.3789199609751988 0.3788375876909290 0.2489220005936776 F F F
0.1243676095503046 0.8733381116072674 0.7486008946541788 F F F
0.9990780240304125 0.7486619915525473 0.7478269629409117 F F F
0.5034655386350031 0.2520827868915461 0.2479056257574462 F F F
0.6254063678868327 0.3766712125031677 0.2483396056343704 F F F
0.6252188876507569 0.2507900207336547 0.3746827632049500 F F F
0.5029233470317258 0.3778290319022900 0.3751977037808188 F F F
0.7480271243322689 0.2510561273600678 0.2493816383493544 F F F
0.8725564173925903 0.3777154268251177 0.2523085964720087 F F F
0.8744021545046418 0.2553812340611549 0.3761564947475007 F F F
0.7473720066697718 0.3756373262646902 0.3744616446488577 F F F
0.9984517670524313 0.4995553342928551 0.2556873959297489 F F F
0.1243533640674379 0.6258900755360652 0.2490786443080547 F F F
0.1336945803460744 0.5022276735341173 0.3732570466952281 F F F
0.9996969745086129 0.6197715026723456 0.3780901511047765 F F F
0.2534617998961797 0.5036378964359157 0.2483150074131467 F F F
0.3768133495740111 0.6257507717467240 0.2491418986399036 F F F
0.3762479766759154 0.5005474709665344 0.3752355672375862 F F F
0.2521273552941453 0.6266548370390884 0.3746440228736420 F F F
0.5018042401077210 0.5018685663009376 0.2489384696827956 F F F
0.6253840515967863 0.6256125227502233 0.2486708961854958 F F F
0.6254193770896277 0.5014268242569518 0.3748007283986371 F F F
0.5007234244302338 0.6250631832762990 0.3748301723053840 F F F
0.7474555648675660 0.5015850704530573 0.2476597514189049 F F F
0.8742330170129233 0.6257842557922851 0.2487464798476672 F F F
0.8666016858453955 0.5024559738234253 0.3733264075468050 F F F
0.7484669036956920 0.6267750315424425 0.3746834936847700 F F F
0.9986768262402204 0.7472259613034115 0.2500735522919401 F F F
0.1237083474656840 0.8688618774646153 0.2494350150293863 F F F
0.1239323808664203 0.7475078503866637 0.3751103488581837 F F F
0.9972957725584114 0.8717041171412752 0.3755445473047538 F F F
0.2503784617373861 0.7474040416360849 0.2487923492589538 F F F
0.3773130516823377 0.8700895862853857 0.2492659387221411 F F F
0.3764163441922508 0.7490255307682303 0.3752896427594685 F F F
0.2504635060663508 0.8697363589899990 0.3761194771051745 F F F
0.5016697119627642 0.7485702935385659 0.2489285201861060 F F F
0.6262799923324167 0.8734937258382454 0.2490385626547874 F F F
0.6254501835563970 0.7494815136813077 0.3749449122058192 F F F
0.5026897447572900 0.8729134695207762 0.3753673820271522 F F F
0.7495942487430283 0.7491880787812930 0.2486954538921474 F F F
0.8726496021191829 0.8724056018578262 0.2492460101658159 F F F
0.8747698680984749 0.7478739722162531 0.3749761152250392 F F F
0.7497690248563568 0.8733253767580914 0.3750687111556712 F F F
0.9972306212197644 0.9977899448822003 0.5030399008921554 F F F
0.1234388249319396 0.1261791149347279 0.5068227840431574 F F F
0.1240369845455782 0.9983410278777548 0.6262282936658602 F F F
0.9979031808225709 0.1252805181539935 0.6257756921977976 F F F
0.2503875943333788 0.9973112027505718 0.5051996072145615 F F F
0.3777523155143566 0.1247802964493604 0.5050409888948948 F F F
0.3767951930338341 0.9983266601665272 0.6257348058351938 F F F
0.2506585963610520 0.1245567461257166 0.6277340042722015 F F F
0.5024882375961600 0.9985804907408680 0.5016145637580354 F F F
0.6261030322636515 0.1243728458918046 0.5005934931422760 F F F
0.6257108841243560 0.9986230794209165 0.6247468293031705 F F F
0.5020035757371152 0.1244962499062629 0.6255762930796597 F F F
0.7494334748022164 0.9989286762456893 0.5000313615264935 F F F
0.8719411602637752 0.1253193305520560 0.5022130784377090 F F F
0.8733968589791877 0.9986363479139984 0.6250914600571521 F F F
0.7491682216498382 0.1244422776137672 0.6250049315992200 F F F
0.9963118361270416 0.2558331193383850 0.5033542893210251 F F F
0.1338327981742932 0.3773733544778060 0.5078431347421759 F F F
0.1235791843088075 0.2507833115608216 0.6279872547333476 F F F
0.9987216306590760 0.3799372716167962 0.6211514494505356 F F F
0.2511818961797365 0.2513222339405005 0.5067773428376837 F F F
0.3767233492937656 0.3780462254632245 0.5026289073341974 F F F
0.3771000063729215 0.2510728478100493 0.6264286305918573 F F F
0.2532521767497441 0.3769483898232774 0.6289033796828870 F F F
0.5026269659843247 0.2513010930124861 0.5021439423772334 F F F
0.6254513410409501 0.3764268076682665 0.5003159552018747 F F F
0.6256000305895479 0.2508032893973810 0.6249246399803041 F F F
0.5013412329299700 0.3766365535601008 0.6251736548032822 F F F
0.7474495559809570 0.2493938191393109 0.5003273746961460 F F F
0.8658082474283800 0.3744351926263422 0.5025691486301888 F F F
0.8731997923047637 0.2507309512684853 0.6262340025142733 F F F
0.7479268720235739 0.3762551037911500 0.6262325359174851 F F F
0.0001768300710416 0.4373984166355331 0.4388644607571406 T T T
0.1230084271077027 0.6220291409207681 0.5000312223218183 F F F
0.1230102438398731 0.5021983258167511 0.6234252547906839 F F F
0.9989612971471975 0.6223309338507365 0.6215309501667322 F F F
0.2527212949042004 0.5025061035800253 0.5014084717633855 F F F
0.3765425358380142 0.6252937134632485 0.4998593121545561 F F F
0.3767506977502191 0.5016404664697381 0.6253262006852155 F F F
0.2508559414887896 0.6255076864981649 0.6246544686024953 F F F
0.5011054845011100 0.5013825515645687 0.5001146795517749 F F F
0.6251330709360474 0.6255919753595840 0.4997711528625302 F F F
0.6250939497743353 0.5010064484266343 0.6246092365850113 F F F
0.5008161325302505 0.6256515335172709 0.6246083070898101 F F F
0.7480254432310249 0.5015617461184629 0.5004594170551289 F F F
0.8762925906903491 0.6219698390677372 0.4996305055097736 F F F
0.8758504841481883 0.5008399810527433 0.6217756932453810 F F F
0.7498068070134877 0.6253677607795520 0.6240984318707657 F F F
0.9989952968860639 0.7478300132014637 0.4999865721823617 F F F
0.1241871007038705 0.8714717292376426 0.5021264636821062 F F F
0.1242760760700736 0.7486069772313911 0.6244319566468328 F F F
0.9985839453653016 0.8732522027168437 0.6248720242462230 F F F
0.2495055408557586 0.7473067893047812 0.5005531240087291 F F F
0.3760867674728804 0.8724019304966893 0.5015713000741588 F F F
0.3760671170363868 0.7492541177843957 0.6245588374516805 F F F
0.2505442786860321 0.8728510737881563 0.6255694929483829 F F F
0.5009740316260768 0.7494055087286025 0.5000918598703014 F F F
0.6261454668930450 0.8736579449704586 0.5000110046374203 F F F
0.6257996065547149 0.7497273388601121 0.6240691373200805 F F F
0.5009828224036365 0.8736969306859604 0.6247096119461258 F F F
0.7509373412649425 0.7485276401425861 0.4994370603440960 F F F
0.8737500235748061 0.8732044672395363 0.4999949718466688 F F F
0.8743617158782744 0.7490972648529830 0.6240179742411407 F F F
0.7500244853568772 0.8738687902919527 0.6240476851811066 F F F
0.9987161182158287 0.9989236118570336 0.7488062671679854 F F F
0.1242055920196725 0.1244617122024103 0.7493061314664382 F F F
0.1243297710873455 0.9980730356072541 0.8717678502512787 F F F
0.9980317078112779 0.1245186551734528 0.8715935157983958 F F F
0.2504722662528823 0.9986535943595333 0.7489374825022638 F F F
0.3762682656015153 0.1247108125779152 0.7490612112822320 F F F
0.3766325821162146 0.9988202840307903 0.8723505792030384 F F F
0.2510289396980387 0.1242559169120082 0.8709117121937116 F F F
0.5011323339806848 0.9991300563265034 0.7489090487200835 F F F
0.6256968131086517 0.1247110257743822 0.7490300196345551 F F F
0.6256554058783385 0.9989063294055185 0.8730608683140356 F F F
0.5016044174675235 0.1247885059968262 0.8724642274126030 F F F
0.7497767536035012 0.9988588290995282 0.7488238528395630 F F F
0.8736221890424081 0.1246380240720768 0.7491609632566089 F F F
0.8734905636146647 0.9986341273114394 0.8728492206112672 F F F
0.7490753216793181 0.1245591251164835 0.8732519926395148 F F F
0.9986171326224126 0.2516500033309354 0.7485297176016649 F F F
0.1242554485916333 0.3766008322720912 0.7483770145167694 F F F
0.1242184636717101 0.2513498986307403 0.8704758546043289 F F F
0.9982516512730011 0.3770542617659178 0.8721526165362259 F F F
0.2505408958469997 0.2505546091638283 0.7492655809984258 F F F
0.3766647601841506 0.3765007549475881 0.7496326563786234 F F F
0.3771678079504634 0.2510320540438356 0.8715801326649034 F F F
0.2509166084886458 0.3772709768936627 0.8716050483462027 F F F
0.5013019034335900 0.2507284482659979 0.7490699164618275 F F F
0.6251180161803317 0.3764129799438384 0.7491851695155385 F F F
0.6251643482827474 0.2509814547133254 0.8734994604338219 F F F
0.5015101078152823 0.3764974219865319 0.8733852406688800 F F F
0.7490727189601146 0.2505709156536191 0.7491584574618406 F F F
0.8744151186538697 0.3762928968857038 0.7481813663246173 F F F
0.8729289344469353 0.2511162250498797 0.8722162233847294 F F F
0.7493327831845438 0.3766298587174844 0.8728916361591599 F F F
0.9989431141190875 0.5010618178220018 0.7480587517929110 F F F
0.1244796856357255 0.6257560432856888 0.7486717461062331 F F F
0.1243199347403641 0.5019282972215265 0.8721281907521102 F F F
0.9987329559656107 0.6256663591687605 0.8728731590446382 F F F
0.2496500360915718 0.5015285841667154 0.7482668163477436 F F F
0.3758184152440244 0.6253296682458944 0.7488831118612799 F F F
0.3763238411710645 0.5014768310907232 0.8728436376503460 F F F
0.2506454867763822 0.6257005638367760 0.8729377568681106 F F F
0.5008785315738182 0.5011199254760177 0.7490972436871050 F F F
0.6255841415838208 0.6252238406331914 0.7487844028285395 F F F
0.6255652055963422 0.5009376027633975 0.8731409097646895 F F F
0.5007260048422203 0.6253068241323121 0.8731368567008301 F F F
0.7507091603879533 0.5007239854211426 0.7478648778008748 F F F
0.8745416320949694 0.6251524136519562 0.7483162869679146 F F F
0.8738317516479981 0.5011075978449572 0.8728632845716811 F F F
0.7498967880678361 0.6252905146755205 0.8730804776970534 F F F
0.2527766830176169 0.3766173618954444 0.1214016468247690 F F F
0.3769455830235383 0.2530962070231014 0.3770100421274441 F F F
0.9958947265360345 0.1254196236946694 0.1233030477576643 F F F
0.1204914455370115 0.2612843617892943 0.3772727004997910 F F F
0.2486411483046347 0.1265809810143260 0.3765031176691527 F F F
0.3767781957189030 0.9985213207825964 0.3751578587874490 F F F
0.9969153878491003 0.1262211890662185 0.3761894722512796 F F F
0.1243038985465084 0.9962870014703792 0.3760316223791735 F F F
0.1250114255189793 0.9973173971914664 0.1224782675796310 F F F
0.3772792744347007 0.9977628229473792 0.1232652832360508 F F F
0.9972731272372493 0.3782782758093536 0.1228335754176428 F F F
0.1237744384987562 0.2514340912468545 0.1221138586127776 F F F
0.2531757507442501 0.1280521894118059 0.1219688870998463 F F F
0.3786718423819510 0.2520723499050516 0.1216612733837692 F F F
0.2522847235336055 0.3778689564725051 0.3766568120086048 F F F
