#comment
1.0
16.184 0.0 0.0 
0.0 16.184 0.0 
0.0 0.0 16.184 
Al Mg 
243 12 
selective
Direct
0.9993222031323714 0.0003124201542817 0.5001995050226297 F F F
0.0652217717591137 0.0590090987270968 0.9966670191598963 T T T
0.1366039107207033 0.0015675802187739 0.1310498622002511 F F F
0.8733447755124331 0.7471001879899830 0.8755723473827887 F F F
0.2510470857789475 0.0046200532427926 0.9980154399830478 F F F
0.3770507384732313 0.1254592940203822 0.9988360931355946 F F F
0.3774474135119340 0.9994988071058996 0.1249357509854419 F F F
0.2560847577537169 0.1259083016439511 0.1234261933351024 F F F
0.4997179007726760 0.9994114519000554 0.9999702573210252 F F F
0.6224822153248858 0.1251108183223320 0.0016357538679116 F F F
0.6230439387928224 0.9992077456605734 0.1263512891085800 F F F
0.4998083540344158 0.1254457996518713 0.1255945347180970 F F F
0.7456172127610916 0.9969350589050753 0.0010361333126973 F F F
0.7478128953487667 0.7477642661399561 0.7493060386236816 F F F
0.8646232568339771 0.9972284451123016 0.1292120897798181 F F F
0.7469154418410832 0.1258762639519272 0.1264225725478188 F F F
0.0013743469277032 0.2506619850853443 0.9971708159518470 F F F
0.1265165676700820 0.3768683311233246 0.9982237491071915 F F F
0.4994060416481199 0.8737065390677029 0.8742452292804672 F F F
0.9992255467305510 0.3766644642173213 0.1252936002285369 F F F
0.2532632608110731 0.2497509501252122 0.9976108664363789 F F F
0.3757396834854860 0.3754384775692388 0.9995704701185681 F F F
0.3772833612186710 0.2517484556462461 0.1251102381299583 F F F
0.2522926384563046 0.3768447530843061 0.1247741929175905 F F F
0.5000118217821052 0.2509936224875923 0.9998348275529663 F F F
0.6238530610285657 0.3762105924044560 0.0001450810763845 F F F
0.6235837080154015 0.2513040337941997 0.1261326071981368 F F F
0.5002212748739775 0.3757592312400354 0.1252609463799162 F F F
0.7472041394371235 0.2522412243529660 0.0019926423400985 F F F
0.8744330882500936 0.3777817655699315 0.0012427935322976 F F F
0.8716337442018960 0.2540044888923859 0.1263921628257847 F F F
0.7482816302485616 0.3766510334060240 0.1258579758948674 F F F
0.0001644147988110 0.5009142635566386 0.0001326585106376 F F F
0.1256137774736704 0.6235252660930093 0.9998617301138590 F F F
0.1254512236558407 0.4996769340341722 0.1251512619660412 F F F
0.9993912982939180 0.6238886879920196 0.1251925324892703 F F F
0.2509883732920901 0.5006116260939739 0.9996632039551585 F F F
0.3756111825771109 0.6242101555337441 0.9998186571272690 F F F
0.3757999845397123 0.5001349711383887 0.1251912980063094 F F F
0.2509742950020895 0.6236649760235485 0.1251813479895937 F F F
0.4998880769464557 0.5001563141700314 0.9998108578600656 F F F
0.6243620434528830 0.6244617894593173 0.9997850675770302 F F F
0.6245418371593081 0.5003328416392937 0.1254044561720226 F F F
0.5001602564578619 0.6242258971402979 0.1252982853859738 F F F
0.7490880100968768 0.5008385691363041 0.0001700318283279 F F F
0.8740135938821739 0.6238275784273131 0.0000312957650672 F F F
0.8742520294049217 0.5008232204323592 0.1257363560238305 F F F
0.7489606352327213 0.6245152293897689 0.1253790711495393 F F F
0.9987234729414849 0.7478083459652047 0.9989058175055290 F F F
0.6239260625068087 0.7485417526330450 0.8747243867264100 F F F
0.1259637879946611 0.7466535359552023 0.1239464148729406 F F F
0.6238854999497658 0.8734603542383989 0.7490124539585749 F F F
0.2525021980659458 0.7479527096257289 0.9996372921736995 F F F
0.3758067345794964 0.8753334889445004 0.9996573826339008 F F F
0.3767735506823614 0.7482773254854205 0.1251497239568204 F F F
0.2555356255196058 0.8728869454461210 0.1247568243007445 F F F
0.4995822184394386 0.7490817698345650 0.9996817689861837 F F F
0.6229640503747843 0.8732150810753884 0.0001497558515527 F F F
0.6238161565551830 0.7482443234031024 0.1254138956419582 F F F
0.5000994527628065 0.8739388904064285 0.1255244931479408 F F F
0.7482891292441304 0.7486351664141229 0.0000336308231019 F F F
0.8702411497769608 0.8748302511286640 0.9976332434834669 F F F
0.8726976654343627 0.7483376832472508 0.1247609390505928 F F F
0.7462249154547778 0.8719258066417664 0.1261014046422330 F F F
0.5000535007479403 0.7488524277371695 0.7494578104056874 F F F
0.2552355570365948 0.8740160137029803 0.8737370778863254 F F F
0.1277787652098661 0.9990256879173777 0.3816023352449819 F F F
0.9980825237465131 0.1278778348863240 0.3798596625145616 F F F
0.2573755875915283 0.9990565508145346 0.2540546347193927 F F F
0.3763142293028144 0.1260679023310025 0.2505587940976436 F F F
0.3775590984435266 0.9996749590647104 0.3770762779810987 F F F
0.2543705612230331 0.1259891701878222 0.3787683375260145 F F F
0.4997811212600834 0.9997965429448872 0.2506918012103935 F F F
0.6237796451331998 0.1256590505483941 0.2510231516899450 F F F
0.6235373208316018 0.9995378543844788 0.3764050575468756 F F F
0.4998923069056340 0.1258596739377363 0.3759713573095868 F F F
0.7464697998294431 0.9995100595022420 0.2525047315706189 F F F
0.8681837846252480 0.1275378637156697 0.2553495935425706 F F F
0.8705087813700516 0.9992593500275410 0.3793530954436268 F F F
0.7472591738689975 0.1257765904221038 0.3771217333053976 F F F
0.9980203151363284 0.2545087868396508 0.2543837657685667 F F F
0.1259351361070227 0.3760119034752262 0.2506663777978368 F F F
0.1263433181899349 0.2536561202896787 0.3781264933475902 F F F
0.9997323487949448 0.3771288905705303 0.3762645273604194 F F F
0.2543183371956823 0.2531897559900529 0.2517663283232792 F F F
0.3765937196704579 0.3765219508137104 0.2507677834014123 F F F
0.3764427047141869 0.2512061885420492 0.3758527811840027 F F F
0.2515950241161283 0.3766344915934863 0.3758189818175481 F F F
0.5001303456266429 0.2510857011960168 0.2509061150927484 F F F
0.6244047283524455 0.3760552777207480 0.2507818190711960 F F F
0.6243256557897902 0.2511719039307006 0.3758961386292870 F F F
0.5001133033283212 0.3756917574906803 0.3756587044901383 F F F
0.7475167211700425 0.2517646401318781 0.2512764993002914 F F F
0.8734253830933524 0.3768345614222681 0.2511390167749850 F F F
0.8731859021889607 0.2519852367001857 0.3767841188669315 F F F
0.7489782450089095 0.3760084408943044 0.3754056813211462 F F F
0.9998892375498357 0.5003008632719177 0.2501087439691926 F F F
0.1254904977576653 0.6242566457995155 0.2502458064481483 F F F
0.1256266193818537 0.5001814425118575 0.3750439500140819 F F F
0.9998182827378578 0.6241924421827734 0.3751695432462707 F F F
0.2506589660932742 0.5002867170025296 0.2502309774708211 F F F
0.3760415981985852 0.6240377423408389 0.2506362755929528 F F F
0.3753901612781702 0.5002076824953275 0.3753414455413981 F F F
0.2510889791229318 0.6239893751101050 0.3755693420622880 F F F
0.5001813219285196 0.5001113364251889 0.2505935323280401 F F F
0.6246443127184890 0.6242434072473263 0.2506890807901654 F F F
0.6248366696012734 0.5000894105506724 0.3753966128877956 F F F
0.5000260883206609 0.6245520911846433 0.3754713891973300 F F F
0.7490066575330068 0.5003427900136802 0.2506561274210518 F F F
0.8738496150032944 0.6242474975894718 0.2505035879547365 F F F
0.8742984059733532 0.5004032786197126 0.3752552870703739 F F F
0.7492549206692598 0.6245225261096790 0.3752905817504640 F F F
0.9982297773402506 0.7482510918742167 0.2502752995364323 F F F
0.3764060189790785 0.7485343906037194 0.8746296711491794 F F F
0.1259199372643896 0.7471940222239242 0.3771306961671453 F F F
0.9984618243389346 0.8713440844051209 0.3791862161271539 F F F
0.2527808962422455 0.7471325453248320 0.2506920870340170 F F F
0.3769121147565183 0.8733223063563812 0.2509706654034753 F F F
0.3760428852628260 0.7488816977083464 0.3754881471971271 F F F
0.2532065335946495 0.8732975704136753 0.3777260334347208 F F F
0.5003425438895539 0.7486542735019889 0.2508189795054022 F F F
0.6239205904718406 0.8738495274960930 0.2509047556162705 F F F
0.6245023354625958 0.7490909959645206 0.3755019804562790 F F F
0.5001827699036500 0.8737531062693538 0.3757361345848058 F F F
0.7479196040060789 0.7482675536706261 0.2509806010385731 F F F
0.8706615400113411 0.8713027846575102 0.2527848793022963 F F F
0.8735186198468198 0.7482215115602709 0.3760232639021862 F F F
0.7478480836389495 0.8736311804427832 0.3759302813053609 F F F
0.7465076098199290 0.8734360500812496 0.8746851859199297 F F F
0.1261543444675569 0.1266114466543529 0.5007824509815541 F F F
0.1262918084669196 0.0013902108302213 0.6229816229326519 F F F
0.0004519359157819 0.1265047419123129 0.6229816496341919 F F F
0.2523387650846959 0.9998810452093126 0.5013907045700113 F F F
0.3764073357587169 0.1259526446810507 0.5008511891133155 F F F
0.3769300718463525 0.0001781599722875 0.6242279583738973 F F F
0.2518535380853205 0.1261832616377306 0.6242645525822443 F F F
0.5004240729573531 0.9997843984741999 0.5005542452242377 F F F
0.6236397013016305 0.1258735596427501 0.5005800124221071 F F F
0.6233250826627814 0.9996756943666373 0.6241506001823663 F F F
0.4994750572974632 0.1259854888023757 0.6247664456440105 F F F
0.7478076882696129 0.9997890686849300 0.5003814836213309 F F F
0.8734229869859367 0.1264627217091334 0.5008298091455179 F F F
0.8738139530983282 0.0008081349170699 0.6220911584343769 F F F
0.7480330239004388 0.1255244975273790 0.6237783417032373 F F F
0.9996878154348700 0.2520806721487551 0.5009909843073781 F F F
0.1260179141207894 0.3765007620662567 0.5004796391990950 F F F
0.1263643804254863 0.2517893040349897 0.6240491126613051 F F F
0.0003782834549975 0.3769668466184349 0.6239456264771801 F F F
0.2517928944427207 0.2516228502842544 0.5006526685218609 F F F
0.3757000813121273 0.3757062825019086 0.5000687424217646 F F F
0.3755104222458486 0.2507409618621124 0.6251010775564505 F F F
0.2511029980012042 0.3757211454127439 0.6249842471379931 F F F
0.4998402587796347 0.2512531552372874 0.5002279218184018 F F F
0.6248513592063305 0.3757135628422258 0.4998409147798535 F F F
0.6239499784377031 0.2513468196527258 0.6238120556792740 F F F
0.4997963735800586 0.3754897349802677 0.6246402932928949 F F F
0.7487941305841332 0.2511699900641627 0.5001899358807580 F F F
0.8740263232658096 0.3761553395687821 0.4999975938138872 F F F
0.8744248239905478 0.2516542782009418 0.6240535585270969 F F F
0.7490174333454100 0.3763179757642605 0.6237418715002401 F F F
0.9999651827595469 0.5006592210800775 0.4999173324076001 F F F
0.1256678161224623 0.6235499106848342 0.5001457519080389 F F F
0.1260297118304587 0.4998716473943247 0.6252043781420707 F F F
0.9999431570126095 0.6235408081352237 0.6243620031593824 F F F
0.2508252371237571 0.5000968775066298 0.5000976104276796 F F F
0.3754894234489924 0.6246002342406782 0.5000391065607949 F F F
0.3753761535720876 0.5000458366410864 0.6247042998926738 F F F
0.2511925822761052 0.6241890010994362 0.6245633102827509 F F F
0.5000752935544251 0.5001526429140638 0.4999656662006948 F F F
0.6247392640676592 0.6243969921684064 0.4998356155999643 F F F
0.6247505056737763 0.5002199170590117 0.6245442182118371 F F F
0.4998773642482058 0.6247612742790150 0.6248773841853144 F F F
0.7493598137200038 0.5002634405470503 0.4996547298774126 F F F
0.8741281943898825 0.6242205920231264 0.4994612506107463 F F F
0.8741625755372635 0.5007501398784593 0.6239492015012557 F F F
0.7490461730622872 0.6244027198202643 0.6243504122177878 F F F
0.9995832154385582 0.7477501836271602 0.5002033516512377 F F F
0.1262669478886637 0.8734638634800237 0.5011136672630901 F F F
0.1256882965566945 0.7471374378014783 0.6233142296913246 F F F
0.9998637475073890 0.8741888626503937 0.6215534145412196 F F F
0.2514952056943890 0.7484801123447232 0.5002543161019142 F F F
0.3763794670376440 0.8740606888621705 0.5003485571720270 F F F
0.3758426798754917 0.7491638231175299 0.6246454949508098 F F F
0.2521752942967999 0.8740743400303519 0.6235843570169861 F F F
0.4999013593853345 0.7491124940792013 0.5001118068279236 F F F
0.6241548894684067 0.8736511368015853 0.4999744954102290 F F F
0.6245398315233498 0.7490922551980712 0.6244836792732282 F F F
0.5001754270922337 0.8739192395404003 0.6246992486137020 F F F
0.7486947815926257 0.7487829774746380 0.4996316624581886 F F F
0.8729543305942489 0.8734544278081621 0.5006281554966472 F F F
0.8739616550671966 0.7473697772787355 0.6232205728796710 F F F
0.7478132799269684 0.8739450366653415 0.6234496594446647 F F F
0.0002933176766744 0.0019147774355747 0.7457070107991906 F F F
0.1275436974871116 0.1276661866096142 0.7464140594358640 F F F
0.1311971536117382 0.0008644738613788 0.8637214948185670 F F F
0.0002687465293412 0.1276225929147546 0.8635735877317446 F F F
0.2543839100335332 0.0008433099063912 0.7466993363228361 F F F
0.3751288357894849 0.1260893480352044 0.7505350137550402 F F F
0.3766387207483199 0.0005097225333323 0.8740719435500039 F F F
0.2499426939036408 0.1269405719269085 0.8753558986141661 F F F
0.4992862502190422 0.9997924044477460 0.7491915378410693 F F F
0.6224649000391027 0.1254759161703122 0.7475188193424388 F F F
0.6218638813094421 0.9978892028513168 0.8738925896587759 F F F
0.5005516439625196 0.1256862189710734 0.8741580699652886 F F F
0.7478449684791598 0.9989809052750005 0.7477392303935222 F F F
0.8737547816180088 0.1252035143954298 0.7448496487887445 F F F
0.8755966125667183 0.9981469298821523 0.8730055035575063 F F F
0.3763049604248190 0.8739351285341438 0.7489150524380239 F F F
0.0017688750462855 0.2533171030618067 0.7460535526866116 F F F
0.1267351085424193 0.3750206640789766 0.7502513888858142 F F F
0.1267509017371686 0.2484344881731041 0.8769976692458594 F F F
0.0020154417516664 0.3779138603309146 0.8736262797644776 F F F
0.2515518570314955 0.2514164504013939 0.7494375721912470 F F F
0.3760711728954869 0.3758300026666476 0.7493246660004133 F F F
0.3764576966074424 0.2508029653204963 0.8741161083675280 F F F
0.2515324810827435 0.3758099261677733 0.8740942284586229 F F F
0.4996155750352470 0.2511559075487909 0.7491363760060239 F F F
0.6239256273513065 0.3765216752147635 0.7488349898673718 F F F
0.6230262150558964 0.2524455620697393 0.8740803473501902 F F F
0.4996600086761497 0.3759379342943233 0.8744578603771987 F F F
0.7472241969506160 0.2524237326810275 0.7465169537793634 F F F
0.8741212786272708 0.3781850088343809 0.7472349814046652 F F F
0.2525060477096734 0.7477487619842226 0.7491879291404274 F F F
0.7473647764793172 0.3775482064582933 0.8744717116262043 F F F
0.0003912867392028 0.5006488197937610 0.7490764937572670 F F F
0.1261929797715456 0.6239030526888105 0.7492614928706538 F F F
0.1262539576144239 0.5006829737272481 0.8740760083063230 F F F
0.9997660436267781 0.6229836950867703 0.8748298294782167 F F F
0.2511513433461022 0.4998906962489221 0.7495975427232864 F F F
0.3759556499252492 0.6242617114718259 0.7494922536603261 F F F
0.3754376993429975 0.5000237090808147 0.8746482422078826 F F F
0.2515956462081445 0.6238074088896260 0.8742871178054975 F F F
0.4996667930061572 0.5000781984818730 0.7495554856119786 F F F
0.6245061728024482 0.6243805368256914 0.7494253801824399 F F F
0.6240911489343559 0.5005402325442052 0.8744080322926885 F F F
0.4997422247275229 0.6244144837607324 0.8744167168893808 F F F
0.7488288009274451 0.5006818809560254 0.7492744560554453 F F F
0.8737874073869194 0.6241312476710655 0.7496071111725654 F F F
0.8744464518382394 0.4998559739032361 0.8745276669127026 F F F
0.7488538164375660 0.6241071545103580 0.8747631234911486 F F F
0.9996050058983328 0.7462307805066752 0.7499985232647212 F F F
0.9979159247673359 0.8765265410649610 0.8783491969767089 F F F
0.1261500004660580 0.7460830138127438 0.8749484808819146 F F F
0.1248005245282272 0.8722185956651353 0.7486841686765077 F F F
0.8743867354385461 0.2537132243024997 0.8727886117782176 F F F
0.7468528233833431 0.1242827839587541 0.8737287216558772 F F F
0.1278239660816518 0.8726555270354583 0.2518911919853474 F F F
0.1296595382659993 0.1261598526729271 0.2562703328688350 F F F
0.9963501711032322 0.9987198681196755 0.2574628026443572 F F F
0.9970717653743234 0.8808307601358720 0.1193277330840095 F F F
0.1273774560628803 0.8784313658444527 0.9970287990857912 F F F
0.1274177619603436 0.2480679151668446 0.1204415054583535 F F F
0.8791650094375082 0.1193110096097814 0.0000516732275116 F F F
0.8749826673695142 0.8732309737099292 0.7485311897805119 F F F
0.9948504961352914 0.1254522709206622 0.1331169298308247 F F F
