#comment
1.0
16.184 0.0 0.0 
0.0 16.184 0.0 
0.0 0.0 16.184 
Al Mg Zn 
224 16 15 
selective
Direct
0.9975458651685056 0.9997888762113128 0.5018492895167705 F F F
0.8744310841446813 0.7491601357929484 0.8726550040866857 F F F
0.8746408191890171 0.8735297494706773 0.7480502811637804 F F F
0.7497460534919930 0.7495865854656757 0.7483292756913956 F F F
0.5008353531117583 0.8737343583522434 0.8729400435877245 F F F
0.6250571148505440 0.7494123838922035 0.8730107076964413 F F F
0.6252365133863832 0.8737167176775458 0.7482618273963197 F F F
0.5002799154367731 0.7496996569451972 0.7480363076590011 F F F
0.5026386347130284 0.9973640934679667 0.9985366546088894 F F F
0.6261689707869470 0.1241912005911569 0.9975660482074344 F F F
0.6270963488683688 0.9979277186504495 0.1239965984645320 F F F
0.5087868682052319 0.1238537480771268 0.1248346313881089 F F F
0.7487986342232043 0.9985245153283807 0.9976761432385662 F F F
0.8683941998669912 0.1255106522731383 0.9968929911706623 F F F
0.8695578876293067 0.9987174198532393 0.1235507763723716 F F F
0.7464563185237011 0.1244447358088145 0.1234290246739621 F F F
0.2504845325324601 0.8726992249768154 0.8719731329274868 F F F
0.3758552596851265 0.7491244376057912 0.8726267503250598 F F F
0.3757720371217036 0.8739249528900963 0.7478215104906946 F F F
0.2504511836429692 0.7490992579596695 0.7481727253921704 F F F
0.9990335431809725 0.8728306922077496 0.8719828407735376 F F F
0.1244259460697514 0.7484724736636972 0.8727251161237599 F F F
0.1245003988515031 0.8724946669611471 0.7473022346230340 F F F
0.9989924908405962 0.7481888780964829 0.7475288685457444 F F F
0.5057844353099329 0.2510438211035700 0.9982339517065468 F F F
0.6263648110499185 0.3771415496472559 0.9974488688282523 F F F
0.6284772928766126 0.2509684983300284 0.1239203608682211 F F F
0.5059679562869911 0.3772961171819931 0.1240781486366735 F F F
0.7484965879345513 0.2511066438059156 0.9977207136943509 F F F
0.8723126391732240 0.3769724343398705 0.9979235341254042 F F F
0.8689362513722290 0.2517825210207207 0.1235808097218421 F F F
0.7486755353228987 0.3772246097208259 0.1240643200639987 F F F
0.9994476657825305 0.4993258810569201 0.9984706863597711 F F F
0.1240542924119873 0.6250123009862292 0.9983759067757931 F F F
0.1226092962447478 0.5003236426332709 0.1243980008791733 F F F
0.9994032073212656 0.6232891201271697 0.1247715654060270 F F F
0.2478803412795139 0.5015123464809530 0.9986999083547392 F F F
0.3749506990381225 0.6252964456874014 0.9979750524477170 F F F
0.3757945514219879 0.5052111801095366 0.1238037564952242 F F F
0.2487077777633409 0.6261010348910580 0.1235163568986312 F F F
0.5017482730504186 0.5026182301889243 0.9975429067507184 F F F
0.6257453922056961 0.6259013385261233 0.9973923836768728 F F F
0.6265011625819119 0.5021815241710182 0.1229194986790190 F F F
0.5012118359526471 0.6267180076968933 0.1233279858071041 F F F
0.7501441904419945 0.5013484633450269 0.9977650223491651 F F F
0.8747930646717468 0.6248096016881203 0.9979588636469692 F F F
0.8746003614333124 0.5009710049973831 0.1240164622698646 F F F
0.7501639301722938 0.6258622958965268 0.1231276579189576 F F F
0.9988278600139263 0.7483323794801032 0.9982617502485862 F F F
0.1241852298972691 0.8705370074069811 0.9982225238934246 F F F
0.1239458762532792 0.7470032010961735 0.1240250540464683 F F F
0.9984102504990853 0.8712673217662934 0.1246207988436887 F F F
0.2503542363665405 0.7485446849840962 0.9979827917616284 F F F
0.3767756090634842 0.8726963194639038 0.9983983273550395 F F F
0.3754476365293568 0.7481270485669764 0.1235406060668425 F F F
0.2501495722155532 0.8692150599251363 0.1243587085406811 F F F
0.5003492362121685 0.7492995888750968 0.9977503093575740 F F F
0.6256112984959102 0.8731050107650844 0.9977570863660475 F F F
0.6259607808015577 0.7490023258960454 0.1232101259431456 F F F
0.5016436351108807 0.8724429066983642 0.1237425404987004 F F F
0.7500677091361818 0.7491418658807666 0.9973372112812441 F F F
0.8733501815563955 0.8732428011811784 0.9977525235238061 F F F
0.8744686219256378 0.7485087059424802 0.1235354939110186 F F F
0.7487808309449067 0.8726860745926988 0.1234731042025629 F F F
0.7501617050441696 0.6251970345956346 0.8728701795155331 F F F
0.8744224323823808 0.5012285583687832 0.8727236736750063 F F F
0.8749998841864676 0.6252621819591870 0.7479668652203482 F F F
0.7506565942804093 0.5009679270153022 0.7476158664697292 F F F
0.5004204953339665 0.6258039342510608 0.8727879108518133 F F F
0.6256494281692362 0.5013190117046515 0.8729452682258376 F F F
0.6256684556035146 0.6253827720154653 0.7485610653471905 F F F
0.5004607922656641 0.5014477897433587 0.7483409302011315 F F F
0.5029176961744368 0.9974828302996224 0.2497528674769855 F F F
0.6269998855103371 0.1242304181822752 0.2504444374665726 F F F
0.6261673074901194 0.9984328881932633 0.3751302733424889 F F F
0.5043794288798268 0.1245412024212560 0.3766602725581956 F F F
0.7486560152213131 0.9985236834982173 0.2500316298389997 F F F
0.8660929601414411 0.1262377334512184 0.2506018388341478 F F F
0.8720326074046514 0.9996472720033537 0.3772319969216706 F F F
0.7481896166640908 0.1253658530591989 0.3765665545636699 F F F
0.2498650372240495 0.6255125175800599 0.8727478890026410 F F F
0.3754832337147757 0.5020038389822441 0.8724622856935408 F F F
0.3754078664595406 0.6254621208523083 0.7480917713952739 F F F
0.2497016730426144 0.5014279182798921 0.7473200823644882 F F F
0.9992693191611884 0.6247264842757332 0.8731745178475918 F F F
0.1241974624547199 0.5008243769427064 0.8729418097524513 F F F
0.1242997476870293 0.6254156122345210 0.7482126252082749 F F F
0.9988170342622310 0.5010024174336100 0.7475320635355062 F F F
0.5064768350878396 0.2507571669652784 0.2502225233783101 F F F
0.6259175452531569 0.3771917427233112 0.2496583507292257 F F F
0.6264647545172493 0.2505682702485201 0.3759867227004799 F F F
0.5028390405814828 0.3765492573790798 0.3760565474688048 F F F
0.7474180922496633 0.2508214890300183 0.2496539847590290 F F F
0.8703895800832241 0.3771700275284717 0.2512859687602128 F F F
0.8716466370933911 0.2529409584112814 0.3771820731007630 F F F
0.7468692058272063 0.3761474227072519 0.3749765335564729 F F F
0.9996093934252401 0.4945062040582475 0.2546554369789674 F F F
0.1236316087757731 0.6245427881255291 0.2487062411158968 F F F
0.1329765093525188 0.5002759266638203 0.3718338581695230 F F F
0.9999063125089239 0.6186676166140286 0.3770771925874738 F F F
0.2505177239750982 0.5028752837408463 0.2473358050034501 F F F
0.3752832381898241 0.6262392689814882 0.2493725165647903 F F F
0.3759588941243933 0.5026370824730875 0.3752671990653628 F F F
0.2508809991868066 0.6267539817427193 0.3743654709451445 F F F
0.5020471555192545 0.5026948185907013 0.2497524579455367 F F F
0.6255960761972977 0.6263444293703994 0.2492326374709981 F F F
0.6252253670440793 0.5016397151286217 0.3749349144200686 F F F
0.5009487888591538 0.6260566755669853 0.3748942415920001 F F F
0.7479666905621823 0.5019553910421211 0.2481395380529377 F F F
0.8753766398637862 0.6248159563532447 0.2490873904931519 F F F
0.8670411781151893 0.5023502428462381 0.3730828256853247 F F F
0.7484730969077945 0.6266838486816322 0.3746170208025113 F F F
0.9989741687666469 0.7470073422958184 0.2506646683711858 F F F
0.1242024287390464 0.8697528679527221 0.2500702651862832 F F F
0.1239249115996416 0.7471861535350813 0.3748244756047323 F F F
0.9979949044889033 0.8723306896926785 0.3759445330993545 F F F
0.2498628446798369 0.7477508867236030 0.2492903332988180 F F F
0.3771539242944771 0.8719801264588392 0.2493394803667525 F F F
0.3759152580513765 0.7492111527691977 0.3751320256718977 F F F
0.2509264805181723 0.8710462840450579 0.3761035177387370 F F F
0.5007803923401172 0.7491027686606201 0.2493398567660144 F F F
0.6256663432090147 0.8729446779331667 0.2494571348657727 F F F
0.6251065171321207 0.7499677896010496 0.3749968698050474 F F F
0.5010771665133420 0.8738219054924862 0.3749354923322211 F F F
0.7500465886446648 0.7489314032038658 0.2493558995619988 F F F
0.8730824550973545 0.8729992336787283 0.2499782404394452 F F F
0.8749089183642783 0.7478317129611658 0.3750473594788971 F F F
0.7496606919199189 0.8731517287783888 0.3751258977583443 F F F
0.7494568920364977 0.8737586762591324 0.8729051226665072 F F F
0.1247334079342394 0.1265022071906017 0.5061726300067302 F F F
0.1251418800046895 0.9990505595406045 0.6241961033831804 F F F
0.9985050542895619 0.1254299404097993 0.6253434733343338 F F F
0.2525076709940892 0.9996298496419549 0.5010088901907797 F F F
0.3772448568073959 0.1246629494288535 0.4990728407262616 F F F
0.3762977533898710 0.9989011533090267 0.6239253493319611 F F F
0.2517093023192143 0.1247637306301385 0.6253341786269565 F F F
0.5007553645110107 0.9982618601962457 0.4996506431984972 F F F
0.6253678950140849 0.1238469667363655 0.5008195619532183 F F F
0.6250680592976744 0.9982972237597857 0.6242640562163929 F F F
0.5009239781652591 0.1244291302576449 0.6239455105511339 F F F
0.7490213289921629 0.9985122725266635 0.5002250963396873 F F F
0.8727915169009545 0.1252152631899981 0.5014208387032205 F F F
0.8736103673366235 0.9985714368554586 0.6245078711455313 F F F
0.7487866816896180 0.1242687018422574 0.6248725754727874 F F F
0.9965945963608398 0.2549195778605667 0.5011605038277631 F F F
0.1345671034826603 0.3754556960369048 0.5063239130675250 F F F
0.1249083811847817 0.2503904484680080 0.6257039896738020 F F F
0.9989011960853459 0.3798308597091919 0.6201255574862583 F F F
0.2535807169948828 0.2492804537282390 0.5019106199780589 F F F
0.3764769196786854 0.3758269938845938 0.4990572255996027 F F F
0.3765356127769684 0.2504143822838594 0.6242702033388877 F F F
0.2534922944548003 0.3759785970600503 0.6267772588387291 F F F
0.5010932814882698 0.2508096388811761 0.5001042003917815 F F F
0.6249489426463722 0.3766957937133126 0.5005150138383601 F F F
0.6248453425075043 0.2507480398192325 0.6247174407173229 F F F
0.5003859602010968 0.3762448696210066 0.6239887804758179 F F F
0.7470873523544463 0.2493628537143946 0.5010306588757161 F F F
0.8655310033689572 0.3739887718875259 0.5022607473078725 F F F
0.8735946561271456 0.2504473679024157 0.6255284904844501 F F F
0.7477999900319722 0.3762801099650591 0.6260301579680924 F F F
0.0001863596463458 0.4367946824525489 0.4394257942259210 T T T
0.1227944592264402 0.6219545275848647 0.4990982008032315 F F F
0.1232885827283090 0.5014907143442325 0.6226492062176321 F F F
0.9992504425140583 0.6223731772541897 0.6213638725558918 F F F
0.2524992772506766 0.5019737273715845 0.5005731421380059 F F F
0.3760163036602653 0.6258924029442058 0.4995152906911850 F F F
0.3764628921756484 0.5012406612054363 0.6242016010193009 F F F
0.2505026442405374 0.6257609394799110 0.6244630852153670 F F F
0.5005329236089112 0.5013613551356256 0.4997050661720486 F F F
0.6250569637918638 0.6257498141431391 0.4995593074809090 F F F
0.6246249923928908 0.5011055806957764 0.6244203558304439 F F F
0.5003181094331858 0.6257583681946289 0.6240627252686322 F F F
0.7478864577924218 0.5016587789204756 0.5001567486802670 F F F
0.8766531861757215 0.6223059632041745 0.4991039471110768 F F F
0.8755997123591845 0.5009530130052158 0.6215449278924423 F F F
0.7499840986346908 0.6253705333619222 0.6239631144597235 F F F
0.9990051911863002 0.7478227997087666 0.4991372199731742 F F F
0.1244752662700609 0.8726638701321818 0.5010162076295077 F F F
0.1242719442879893 0.7483346175972992 0.6240643636828163 F F F
0.9991151937095676 0.8732957640919873 0.6240488145750427 F F F
0.2493627013524394 0.7478810098353836 0.4997618300001885 F F F
0.3759116324531939 0.8739808673181874 0.4993838019954341 F F F
0.3755957352460663 0.7496214163997340 0.6238188820878955 F F F
0.2504690963405397 0.8733634341242382 0.6241445998402358 F F F
0.5004336569319667 0.7498289710216818 0.4995799856441613 F F F
0.6254245825029721 0.8735528464887694 0.4997544732733517 F F F
0.6252381430383186 0.7496681414578575 0.6239396555794562 F F F
0.5004081821900334 0.8740971159211048 0.6237604409335233 F F F
0.7506983001773834 0.7484396603654957 0.4993321999973212 F F F
0.8742301137673709 0.8736217537538665 0.4998753105813737 F F F
0.8745826713984324 0.7490308304172294 0.6236167029443260 F F F
0.7497790232231729 0.8736865113950197 0.6238677844805757 F F F
0.9992152794321506 0.9984718126947379 0.7474363142971535 F F F
0.1248934108310770 0.1245296380355666 0.7456452177044124 F F F
0.1248626933127439 0.9986644951833931 0.8690569800119309 F F F
0.9980387340082065 0.1255923945383893 0.8669408231545310 F F F
0.2506877499256583 0.9986411605143751 0.7470262454975235 F F F
0.3768679031527194 0.1246051177928152 0.7466416222355962 F F F
0.3772438995726369 0.9983767715430127 0.8706672869855918 F F F
0.2511928914902055 0.1248501181679858 0.8668169389173642 F F F
0.5011109789652683 0.9984820542243136 0.7478390732626705 F F F
0.6254152806196155 0.1244309886503073 0.7477141427602302 F F F
0.6255324431994814 0.9985982349073231 0.8727069591248807 F F F
0.5026387709796752 0.1246709238717376 0.8715868774291822 F F F
0.7490812738838691 0.9981870124295514 0.7480816727232033 F F F
0.8730595821519851 0.1244511934987362 0.7473386332237091 F F F
0.8726538916931268 0.9986491782760845 0.8711832592787019 F F F
0.7482412050936770 0.1245194222446969 0.8717448152809157 F F F
0.9989449398359682 0.2522338893161334 0.7465778939513471 F F F
0.1242535400939874 0.3771859510243172 0.7463483604677972 F F F
0.1244557561123424 0.2510750802206893 0.8679604353472697 F F F
0.9989345915721989 0.3771339591780104 0.8712726298243846 F F F
0.2505280798785074 0.2504390746704645 0.7466359259336086 F F F
0.3764665348986667 0.3764143160682829 0.7484695675428780 F F F
0.3767345661477428 0.2508855525402099 0.8693875703048574 F F F
0.2492295346968175 0.3771944070240536 0.8700367135455187 F F F
0.5014022093112641 0.2508205724630986 0.7475593427355900 F F F
0.6249513736935782 0.3770218029926687 0.7487262337617828 F F F
0.6263667390957931 0.2508225799600616 0.8722441845989956 F F F
0.5019131963238426 0.3767233133087640 0.8725185491368350 F F F
0.7489924976329931 0.2508624017759968 0.7480543973074096 F F F
0.8746111576306805 0.3765841962939080 0.7473775984858289 F F F
0.8726979465639645 0.2512456624064552 0.8711038841470359 F F F
0.7497204442901371 0.3766584060881655 0.8723978429788709 F F F
0.9986736962229193 0.0028029462579613 0.9976707236491668 F F F
0.1233089350239910 0.0080554655502133 0.1255142296018442 F F F
0.3768150575638715 0.3754531130919285 0.2483348428128717 F F F
0.2499422695012465 0.2502926018482908 0.2500149358986831 F F F
0.3761844291015899 0.3754737151175532 0.0015134363829602 F F F
0.1227349995596851 0.2550623358471210 0.3781713597204232 F F F
0.2503693785086449 0.0004478756389077 0.9992854864486886 F F F
0.9957904748090529 0.2528624237484437 0.2518037102001081 F F F
0.3798106933600581 0.1260177997058641 0.0014339617029455 F F F
0.9991575046272935 0.2497652230765611 0.9978851896019099 F F F
0.3807034186421915 0.1265058812579401 0.2500132716869999 F F F
0.2530932639963315 0.0008398441376686 0.2499992894178631 F F F
0.1218109837981756 0.2468181344658492 0.1261285044210051 F F F
0.1242681779212363 0.0033473804036076 0.3774793853788828 F F F
0.2471069620547593 0.2500470124039563 0.9997877453166705 F F F
0.9961684500480982 0.0050532628000624 0.2505842769773976 F F F
0.3826900181490390 0.2501118894204245 0.1247578008339452 F F F
0.2528718748245702 0.3778830936128201 0.3773156137169103 F F F
0.1260634099315570 0.1267348691491334 0.2547936766236227 F F F
0.9960606102970615 0.3777858623497982 0.1246977162616118 F F F
0.9950682701959979 0.1285640783541079 0.3809034613409673 F F F
0.1239189119418924 0.3781825457780053 0.9972716446883885 F F F
0.3782581767423680 0.9983027236526028 0.3762425735292498 F F F
0.2546358878726712 0.1256269484133704 0.1247696588108989 F F F
0.3800921311391091 0.9959684823262895 0.1241521793059961 F F F
0.2521502618070313 0.1263749728540421 0.3815053802372741 F F F
0.1261684236088100 0.3801998786547736 0.2489908628295568 F F F
0.9870361596278097 0.1268866528997105 0.1242259324540181 F F F
0.3780423549482661 0.2513321945829828 0.3776982342383555 F F F
0.1252551558113214 0.1252628661483481 0.9886389688132184 F F F
0.2472282180769986 0.3813258716222748 0.1243993462993172 F F F
