#comment
1.0
16.184 0.0 0.0 
0.0 16.184 0.0 
0.0 0.0 16.184 
Al Mg 
253 2 
selective
Direct
0.1254779393363850 0.9994133079147500 0.1283413828658550 F F F
0.9999263308047900 0.1246391707290750 0.1279861598708790 F F F
0.2489232008236400 0.0004685638921984 0.0004096367768653 F F F
0.3749480121344750 0.1242535657916760 0.0001957611530159 F F F
0.3752035661431070 0.9992536275468070 0.1253111273705160 F F F
0.2492706065786270 0.1241598551078200 0.1247921327219220 F F F
0.5002548874349130 0.9994970484366230 0.0002090543864810 F F F
0.6253934111697460 0.1244915762013650 0.0001964749313430 F F F
0.6253803394301301 0.9994230506948720 0.1253329167171700 F F F
0.5001497159551180 0.1244064006006410 0.1252680827447040 F F F
0.7505487942174230 0.9997134203203610 0.0001766889558183 F F F
0.8768668085315670 0.1238528699004180 0.0001353838471445 F F F
0.8760227302340980 0.9996112202833340 0.1249245457383670 F F F
0.7504074014261310 0.1245250839736580 0.1252025685823240 F F F
0.0007675738211717 0.2474822716673370 0.0002289307995156 F F F
0.1250647397896500 0.3736170840904980 0.0001922045818432 F F F
0.1251164305365860 0.2482286698493890 0.1247945342888530 F F F
0.0000970244038285 0.3739594358756970 0.1252612703009820 F F F
0.2486744773106080 0.2475323591354910 0.0002062019473712 F F F
0.3746517490360550 0.3734366387218200 0.0002102425734947 F F F
0.3750851783764520 0.2490812143461620 0.1251721830298040 F F F
0.2501902519737770 0.3738159737163680 0.1252020757155070 F F F
0.5001027457662059 0.2492559041863910 0.0002334493693823 F F F
0.6252793801871021 0.3742236887759200 0.0002533944479879 F F F
0.6253141058419091 0.2494562970219790 0.1252365109384570 F F F
0.5000013292265920 0.3741673280035230 0.1250606547250470 F F F
0.7505750630751820 0.2490643831841480 0.0002082206528584 F F F
0.8755131487532640 0.3739277158844630 0.0002092283504851 F F F
0.8747707171424181 0.2497515124935750 0.1255864924492660 F F F
0.7502426097792140 0.3743641949306420 0.1251124099329670 F F F
0.9999726656847020 0.4986268378185770 0.0004453400498718 F F F
0.1252365623049840 0.6230522207240270 0.0016484040435358 F F F
0.1252974561131030 0.4985982879992150 0.1256571366415220 F F F
0.9998744496094790 0.6240442109638450 0.1258557553058780 F F F
0.2504414605884190 0.4984554764528040 0.0004807682568213 F F F
0.3757522870692540 0.6239212936868910 0.0005307183173002 F F F
0.3752562487853550 0.4988508147134350 0.1251282510717790 F F F
0.2506647769719810 0.6239372103859750 0.1257512064527760 F F F
0.5001713447640770 0.4989683488458990 0.0002430821755439 F F F
0.6254320907361260 0.6243850156110610 0.0002974605858128 F F F
0.6252226593615970 0.4992847539219980 0.1252055134361000 F F F
0.5003987593507380 0.6241876788358240 0.1252635542648050 F F F
0.7501796574374500 0.4991860771578090 0.0002375148483864 F F F
0.8747103098111350 0.6241923872521650 0.0005088833504630 F F F
0.8750809296669290 0.4992142598971440 0.1252835611527420 F F F
0.7501447950191960 0.6245775564179820 0.1251849908067300 F F F
0.9987094029580920 0.7498085183502500 0.0018146526709160 F F F
0.1245902883800620 0.8777190765719710 0.0017255020492399 F F F
0.1253266681347040 0.7494642315821810 0.1254192963260510 F F F
0.9999163919929830 0.8756353244009670 0.1254058698667250 F F F
0.2514962821168610 0.7496644065634970 0.0016989968791847 F F F
0.3756087586980930 0.8749075752563230 0.0005565519255413 F F F
0.3757849288962300 0.7491543383976310 0.1256299824258990 F F F
0.2510531340074210 0.8741243016896120 0.1261206134970080 F F F
0.5003630125703820 0.7493321553145760 0.0002656373685141 F F F
0.6254421932332330 0.8745664089275210 0.0002661593220026 F F F
0.6254787591512500 0.7494225255555660 0.1252149966219850 F F F
0.5003326226826130 0.8742791877869390 0.1253373752290370 F F F
0.7507959913348120 0.7500563747610660 0.0002371551722931 F F F
0.8761903322279000 0.8763557399562250 0.0004924109788220 F F F
0.8747602133828920 0.7495219947861220 0.1256830823191070 F F F
0.7503246671875270 0.8745136056325440 0.1252439523713700 F F F
0.9998100692378959 0.9990304394099280 0.2518087157159670 F F F
0.1256973844435050 0.1247612048978580 0.2517869897601980 F F F
0.1255042516104790 0.9991621110656080 0.3756413226319420 F F F
0.0000218352488446 0.1244979017774810 0.3756216727565590 F F F
0.2507624488178880 0.9991578532051830 0.2509688502225560 F F F
0.3748727303513560 0.1242125413831160 0.2498069340776820 F F F
0.3757220530210430 0.9992328182219340 0.3751311637563500 F F F
0.2507546911023080 0.1242481362531010 0.3753957579805630 F F F
0.5001362251054220 0.9993783979089130 0.2500967882271110 F F F
0.6253913936394330 0.1243607543213020 0.2501090123965710 F F F
0.6252925003676850 0.9993800301056770 0.3749488208589470 F F F
0.5002404085090790 0.1243823604908630 0.3749406555753010 F F F
0.7506804102969080 0.9994264341970980 0.2498119049429800 F F F
0.8748587425047130 0.1245351239219370 0.2508720194777820 F F F
0.8748234589060430 0.9993698038877450 0.3753605326420060 F F F
0.7499021487194710 0.1244209507123200 0.3751077516194030 F F F
0.0000316410882419 0.2495987702353020 0.2509238011118100 F F F
0.1251788223897350 0.3735717984296660 0.2499258363057000 F F F
0.1253048696744800 0.2495235528057410 0.3753883800206810 F F F
0.0001240960703157 0.3745104505265720 0.3751508423007690 F F F
0.2504749161258250 0.2492973858838280 0.2503777164357640 F F F
0.3752855940467230 0.3740780583252600 0.2500044097097320 F F F
0.3753746399368860 0.2491996789593290 0.3749582260425090 F F F
0.2503611052978130 0.3740713630609630 0.3749280154105180 F F F
0.5001082676125040 0.2492592286756550 0.2500778298951330 F F F
0.6251951325425580 0.3743079948514490 0.2501024545418820 F F F
0.6251680206045760 0.2493661398555820 0.3750229239153810 F F F
0.5002366483031510 0.3741763925054040 0.3750129915118310 F F F
0.7501820521455760 0.2494214332719120 0.2502004035941850 F F F
0.8751196210102710 0.3743667868798750 0.2501824209369870 F F F
0.8749638057476830 0.2495089427835570 0.3750986036161380 F F F
0.7501637236075920 0.3743545912389760 0.3749798557107200 F F F
0.0002205797695680 0.4989607600477020 0.2502022171548010 F F F
0.1252760069236420 0.6241604424547230 0.2502033667878650 F F F
0.1253630147765250 0.4989032407255390 0.3749388023635090 F F F
0.0001352158670755 0.6241235205008380 0.3749875445801860 F F F
0.2503540247422860 0.4987710105485450 0.2501528420993040 F F F
0.3754411638416140 0.6239781531527980 0.2502067130656580 F F F
0.3753829498670740 0.4989603216285370 0.3750107780917060 F F F
0.2505394847438250 0.6238410139220820 0.3750738639175350 F F F
0.5002245279327580 0.4991282184191090 0.2500876021480420 F F F
0.6253011344748390 0.6243105599862280 0.2501290248257820 F F F
0.6252559266010420 0.4992825739483710 0.3749836001409220 F F F
0.5003437744597010 0.6241298058799740 0.3750164431478500 F F F
0.7502220400774530 0.4993835284955990 0.2500710611588840 F F F
0.8751174795073670 0.6244333813964570 0.2502066586223320 F F F
0.8750616733859430 0.4993683525054850 0.3750565126094540 F F F
0.7502281320610320 0.6243711077406360 0.3749959122093640 F F F
0.0002106775173729 0.7496463915557779 0.2499772360003830 F F F
0.1254656072193820 0.8738846568913839 0.2510245485252230 F F F
0.1253777041054320 0.7487234997742500 0.3751601537671190 F F F
0.0001341352923916 0.8739386855785090 0.3753959015066430 F F F
0.2504979015425310 0.7490391791112780 0.2503255640978920 F F F
0.3754861888094400 0.8741911231542400 0.2503230957371940 F F F
0.3755350623456410 0.7490647519930180 0.3749634379748340 F F F
0.2506776934400460 0.8739883262286630 0.3751041843531980 F F F
0.5004510793498510 0.7492350202357160 0.2501923232593410 F F F
0.6254180419118210 0.8744225727016260 0.2500976410551630 F F F
0.6253132381446990 0.7493300383117401 0.3750113894027790 F F F
0.5004283113211370 0.8742257071838180 0.3750497574910200 F F F
0.7501300597169730 0.7494018493912830 0.2501347232469870 F F F
0.8749264538768881 0.8742235462035670 0.2505166335704420 F F F
0.8750669296595960 0.7492844510391170 0.3749366361733810 F F F
0.7501462247812470 0.8744111021266290 0.3749319699470630 F F F
0.9999943698948210 0.9991156128102430 0.4999853676359790 F F F
0.1254895046913520 0.1245678310616540 0.4999891796553440 F F F
0.1254942210094900 0.9994600524200340 0.6240915652638180 F F F
0.0000090357597244 0.1245421617925540 0.6244308867196220 F F F
0.2509121239515370 0.9990342635305470 0.5000151515445170 F F F
0.3756979801109140 0.1243116217186540 0.5001329423615890 F F F
0.3757424536384160 0.9992018615141940 0.6250055382797870 F F F
0.2507034881315420 0.1243039885182360 0.6247047003212740 F F F
0.5004815768022440 0.9992372605884010 0.5001154163185290 F F F
0.6250730720360450 0.1244420320253640 0.5000894665115680 F F F
0.6253160407619940 0.9994223951783781 0.6252318457241020 F F F
0.5002222984925810 0.1243395959781780 0.6253184664022200 F F F
0.7498524534336330 0.9992900181996380 0.5001113964852590 F F F
0.8747349014196080 0.1245409457299620 0.5000978151528490 F F F
0.8748192059045440 0.9993623443398220 0.6247678358129530 F F F
0.7499227701301620 0.1244056277191420 0.6250648093634940 F F F
0.9999638938441960 0.2497669013210880 0.5000769101097970 F F F
0.1253582328855030 0.3744895196427650 0.5000030306904080 F F F
0.1252797766868530 0.2495887272640620 0.6246934119455860 F F F
0.0001183170781758 0.3744989188436070 0.6249777713464230 F F F
0.2506653146297990 0.2494959810680020 0.5000827216028230 F F F
0.3753392860016400 0.3741526418664880 0.5001582913749940 F F F
0.3753652549557880 0.2492173537188620 0.6252679792684720 F F F
0.2503314733843420 0.3741053603161650 0.6252290031634190 F F F
0.5003029430847050 0.2493648115778770 0.5001240680870040 F F F
0.6252437745815910 0.3743935849568980 0.5001499794566870 F F F
0.6251530810178210 0.2494024515288160 0.6251591411005180 F F F
0.5001999719956340 0.3741967893205850 0.6253108737533640 F F F
0.7499870808434960 0.2495358881594920 0.5000742017436860 F F F
0.8749700245549480 0.3745174972370580 0.5001092584446170 F F F
0.8749414455041840 0.2495029943635740 0.6250556119013240 F F F
0.7502212727353030 0.3743587130117870 0.6252650581659720 F F F
0.0001241395799738 0.4993215663351620 0.5000229291819021 F F F
0.1253973193235820 0.6238136565706260 0.5000916488941630 F F F
0.1252965634419850 0.4986734557159020 0.6248893403571780 F F F
0.9998704633929240 0.6239178422369280 0.6247714571843800 F F F
0.2504936853581580 0.4989822106346790 0.5000594961385760 F F F
0.3755782325594550 0.6240100217340230 0.5000657118531820 F F F
0.3753394180111730 0.4990334019127830 0.6252870346112400 F F F
0.2506906739871010 0.6236980745441800 0.6247481316012869 F F F
0.5001806510965990 0.4991035588354860 0.5002037420515610 F F F
0.6254067401120550 0.6243468581668520 0.5001493113178480 F F F
0.6252644913335030 0.4991950126525640 0.6252570298592630 F F F
0.5003891622168910 0.6241720520158300 0.6252473916311840 F F F
0.7501010106932640 0.4993502214411620 0.5001188408174000 F F F
0.8749505573151810 0.6242737126541440 0.5000243285487970 F F F
0.8750617264639470 0.4993590960629040 0.6251525972913610 F F F
0.7501786301625160 0.6243481147882690 0.6251958784063310 F F F
0.0001048796351242 0.7487309142897800 0.5000432314643750 F F F
0.1255809302801370 0.8736730518561440 0.5000109446273410 F F F
0.1253707008995160 0.7487796485758120 0.6248894456699150 F F F
0.9999134812587300 0.8741938294412530 0.6242149388212250 F F F
0.2507010085927210 0.7487978549638470 0.5000399179488400 F F F
0.3756878425933080 0.8739315288925130 0.5000290342404340 F F F
0.3757732178126360 0.7490751240566310 0.6248950229343611 F F F
0.2509292693812100 0.8742242976966070 0.6245621946834991 F F F
0.5004554725995830 0.7490310656714950 0.5000557389294970 F F F
0.6252411966669910 0.8742438448723390 0.5000889762359150 F F F
0.6253542591381061 0.7493255934363821 0.6251544395261770 F F F
0.5004993535938030 0.8741989158552880 0.6250940374797340 F F F
0.7501140817981100 0.7493210568606160 0.5000478871557800 F F F
0.8747897223820330 0.8739742794504370 0.5000191376171510 F F F
0.8747835646135510 0.7492771020614410 0.6248995029473360 F F F
0.7501042831176650 0.8744071433678831 0.6251767337580389 F F F
0.9995605445645450 0.9994419299652790 0.7482158769705480 F F F
0.1256615415802290 0.1247600241084040 0.7484163753641080 F F F
0.1257079125027190 0.9991686640897730 0.8720705968880300 F F F
0.9998299530445039 0.1246548666463880 0.8722525315548850 F F F
0.2511210610870410 0.9995781690343150 0.7489777664040670 F F F
0.3750104442523680 0.1243302594373500 0.7503696857855220 F F F
0.3756159030927510 0.9996581519703580 0.8750504214860870 F F F
0.2494319981452480 0.1242655567367880 0.8754062829485890 F F F
0.5002623032400560 0.9994921370874650 0.7501136973551330 F F F
0.6253605216381150 0.1244120719161050 0.7500971515128260 F F F
0.6253929711206820 0.9995350948818570 0.8750301936884530 F F F
0.5002515394222020 0.1245397145679230 0.8750437104957310 F F F
0.7505667050079200 0.9996022333161320 0.7503673671891210 F F F
0.8747129482333590 0.1246398458687640 0.7493507592982240 F F F
0.8756610582636100 0.9999569231924210 0.8755084623989480 F F F
0.7502694357706120 0.1247123827208650 0.8750323938704270 F F F
0.9999668531949980 0.2496490611041790 0.7492773207929840 F F F
0.1251944208145020 0.3736925412316270 0.7504647687912750 F F F
0.1250993514471120 0.2482008653297920 0.8754921187200960 F F F
0.0000903222706583 0.3739801838114470 0.8751121764887561 F F F
0.2505157088827940 0.2493486115743410 0.7497642123264610 F F F
0.3753345063108430 0.3740818639506860 0.7502459101263530 F F F
0.3751692013333350 0.2491402580429350 0.8751989195935290 F F F
0.2501597407861100 0.3738431474882730 0.8752305265519670 F F F
0.5001328872806430 0.2492606543443760 0.7502038393978480 F F F
0.6251956222385791 0.3742510555544740 0.7501945288192080 F F F
0.6253034834553330 0.2494418637984100 0.8751349643113220 F F F
0.5001305224585830 0.3740991462037190 0.8753013856688550 F F F
0.7501291545220210 0.2494437004442530 0.7499976285729060 F F F
0.8750207302603100 0.3742935187190430 0.7500124714209661 F F F
0.8747266952007280 0.2497846692728840 0.8747740841461180 F F F
0.7500948364036050 0.3742361750730940 0.8752388736343730 F F F
0.9999722561979990 0.4985625960518550 0.7499485822440310 F F F
0.1251714828964050 0.6229757667144900 0.7488744087080690 F F F
0.1252811512661580 0.4989247206912780 0.8751329568235560 F F F
0.9987536945721730 0.6230519965733730 0.8751071273247890 F F F
0.2505156641953970 0.4984417288626590 0.7499964570888910 F F F
0.3758052696668340 0.6238172398182510 0.7499773905942750 F F F
0.3755550372366230 0.4985555226285850 0.8753160601488760 F F F
0.2516856675870540 0.6229502998971630 0.8752202015288900 F F F
0.5003024398386060 0.4990843162007860 0.7502368143169140 F F F
0.6253210356745530 0.6242313272253170 0.7501369643671300 F F F
0.6252359117095810 0.4991727504291600 0.8752468324582880 F F F
0.5003711562751650 0.6241421856513090 0.8752547590790410 F F F
0.7501474588531990 0.4992722614090110 0.7501894413563690 F F F
0.8747210793329430 0.6242006739041130 0.7499465433023790 F F F
0.8747311385953300 0.4988064632624760 0.8751390392032690 F F F
0.7501782296417830 0.6245126280051280 0.8752994090985950 F F F
0.9988717028789370 0.7497560071248510 0.7489626182244680 F F F
0.1254568114914600 0.8753154898392670 0.7479196136742980 F F F
0.9987061757753890 0.8768239820863710 0.8754735406184220 F F F
0.2517285309745740 0.7492090804976360 0.7487649348724970 F F F
0.3759710655321200 0.8744514158886290 0.7497113611495930 F F F
0.3755257426817950 0.7492305961643810 0.8752620265008630 F F F
0.2522928445064280 0.8753125429376990 0.8748372014076080 F F F
0.5004482143396271 0.7492536764043790 0.7501709790561720 F F F
0.6254368245373100 0.8745156809891270 0.7500820268059630 F F F
0.6254840141446389 0.7494260298385810 0.8752766824511580 F F F
0.5003543988647650 0.8743479745446980 0.8751226263963050 F F F
0.7501647853287779 0.7493889128833620 0.7501697994699370 F F F
0.8744856645136920 0.8745293685629389 0.7495092011453290 F F F
0.8751315512760270 0.7496142062139630 0.8751904897464871 F F F
0.7502931354745140 0.8745775946879280 0.8751533865332140 F F F
0.0625367427422105 0.0619292966715363 0.0001746056242951 T T T
0.1251741045856890 0.7497774060068420 0.8753796803295090 F F F
