#comment
1.0
16.184 0.0 0.0 
0.0 16.184 0.0 
0.0 0.0 16.184 
Al Mg Zn 
235 15 5 
selective
Direct
0.0001873905179263 0.0011929960368143 0.4996428024316057 F F F
0.8730636849047871 0.8737464618083159 0.7450408236204498 F F F
0.1358837896035730 0.0003973228198911 0.1279852023780999 F F F
0.7474140741765560 0.7469361899698487 0.7460357730884708 F F F
0.4988105327772723 0.8737190749903316 0.8735209250347324 F F F
0.3744647337808332 0.1263171299110654 0.0010408787583599 F F F
0.3755149985142447 0.0001867628205522 0.1264618759195114 F F F
0.6214043323974870 0.7463183204401069 0.8735575544451077 F F F
0.4977830239733392 0.0011835871199353 0.0006182281631418 F F F
0.6199164577282017 0.1281567544346787 0.0015135451000530 F F F
0.6200298048046452 0.0029199746140670 0.1270858126597859 F F F
0.4982203408228505 0.1266865711253088 0.1263554521801756 F F F
0.7409796485069801 0.0033894116468063 0.9995472887380448 F F F
0.8640663426605800 0.1352409309260941 0.0012046165675259 F F F
0.6212469656426679 0.8741150253572387 0.7458499998489733 F F F
0.7450673854472967 0.1293619772077888 0.1273543951556872 F F F
0.0012146772060755 0.2490722905324219 0.9943935744965957 F F F
0.1258063655924507 0.3764107857456107 0.0003802252053628 F F F
0.1275403641307575 0.2542092660816814 0.1269396815224593 F F F
0.9997649778081873 0.3732237014765345 0.1243156038171872 F F F
0.2550762325234683 0.2561044554169863 0.0002785715954705 F F F
0.3765223350423125 0.3768009061492237 0.9999478712556077 F F F
0.3755515213615438 0.2513801188199452 0.1263840171284492 F F F
0.2515647662440237 0.3765741792646791 0.1266391945410061 F F F
0.4983626420224692 0.2517995118511389 0.0005828038888261 F F F
0.6227815212207314 0.3766548894986047 0.0004235877315940 F F F
0.6226640606297246 0.2522006144374779 0.1267562980906027 F F F
0.4993416560589609 0.3756866543294807 0.1262404456978379 F F F
0.7452164097226777 0.2551335203562829 0.0017790938169786 F F F
0.8746541438561871 0.3746234207013168 0.0002968094922500 F F F
0.4992665153707889 0.7480684855025624 0.7481465242409447 F F F
0.7494741307663997 0.3753190118514693 0.1264580421025256 F F F
0.0005355403721643 0.4976355101235858 0.0004410849905343 F F F
0.1280909773864777 0.6202984677856905 0.0021309827527761 F F F
0.1258952063816436 0.4983619484760702 0.1265403812671524 F F F
0.0021064775578940 0.6198948382854482 0.1277306359909631 F F F
0.2513339548326464 0.4987290161235913 0.0003649343602345 F F F
0.3762657953049540 0.6231068862236442 0.0007377418617430 F F F
0.3755504613513584 0.4996119456931207 0.1262946502666696 F F F
0.2516322557752812 0.6233062857111462 0.1269063675570051 F F F
0.4996785265873093 0.4999359001159781 0.0001739228719276 F F F
0.6223740252869062 0.6217402968461833 0.0003699630403154 F F F
0.6238892063597423 0.4988800552766087 0.1264405439573507 F F F
0.4994020463362819 0.6233474600841691 0.1267696092996674 F F F
0.7485321253542652 0.4974372481024925 0.9999450323359333 F F F
0.8734666046327296 0.6178961630133600 0.0003959585100878 F F F
0.8746283305992830 0.4981684096726191 0.1259634544486337 F F F
0.7472455359236778 0.6209944796113716 0.1263486944164039 F F F
0.0025672847109730 0.7403989164054738 0.0028478372607932 F F F
0.2582246184263634 0.8724088663264264 0.8749682563444039 F F F
0.1278152727918229 0.7474694221581506 0.1263758850772878 F F F
0.3770501771360596 0.7473363388772438 0.8745363425773514 F F F
0.2544204793112267 0.7476614427703834 0.0022682259505362 F F F
0.3775914131504511 0.8743124358417589 0.0010299399223810 F F F
0.3762566800138969 0.7489191633491955 0.1262534136586342 F F F
0.2537111451898554 0.8727748795842669 0.1274784435482390 F F F
0.4986531517178993 0.7477580414210270 0.0003166637508255 F F F
0.6179241697173146 0.8742050266868847 0.9999369177490531 F F F
0.6212429192970891 0.7466030775118726 0.1264594245655001 F F F
0.4992080921680545 0.8744646231304588 0.1266694712286306 F F F
0.7438566693077736 0.7448929495750133 0.0004821292841186 F F F
0.8650598574223008 0.8743139877590113 0.0005386263405088 F F F
0.3769271239604016 0.8739637468967955 0.7478508267790495 F F F
0.2536461688951965 0.7470975563862085 0.7479534994114705 F F F
0.0042449770417477 0.0020042062816870 0.2532097025433916 F F F
0.1278766993414606 0.1269657855506015 0.2514967936227206 F F F
0.1268660066952701 0.0006611502307029 0.3766300778600320 F F F
0.0006253391947859 0.1267311152841853 0.3755570364443492 F F F
0.2524177905054156 0.0001169803208012 0.2527953528913348 F F F
0.3753457857191501 0.1260075240504274 0.2514028423862507 F F F
0.3757234142966070 0.0006654111031421 0.3761218877624227 F F F
0.2504626258043309 0.1263148080735565 0.3759803604026220 F F F
0.4985099041996813 0.0008465652572981 0.2516348464778886 F F F
0.6226188052717765 0.1271894846286529 0.2516269651942278 F F F
0.6230450171520514 0.0009276439230325 0.3763174062898886 F F F
0.4997457651429668 0.1265947485979094 0.3758096046797578 F F F
0.7462695517596624 0.0037541946504142 0.2536322381521235 F F F
0.9994645573672220 0.7482877281045017 0.7460577596123289 F F F
0.8749486278394887 0.0028665826780361 0.3776145314256566 F F F
0.7492323099644537 0.1270340814643395 0.3759320565170184 F F F
0.0003157416229289 0.2514370893183801 0.2516294669042149 F F F
0.1257646647558018 0.3756043466670286 0.2513735003341040 F F F
0.1260829544763756 0.2511742255830036 0.3756983274960219 F F F
0.0003955717570335 0.3749982351072695 0.3755811033767578 F F F
0.2513597509928673 0.2516213782397902 0.2517875414718674 F F F
0.3752404853635665 0.3754392207195505 0.2512944209214817 F F F
0.3750771121069170 0.2506026369649829 0.3755020881443044 F F F
0.2504519365214293 0.3753355930474211 0.3755476931377104 F F F
0.4992188249585390 0.2513429885741446 0.2513407412298624 F F F
0.6246290274148140 0.3752464910180499 0.2509219204044131 F F F
0.6244181417720976 0.2510777338058185 0.3754807513551729 F F F
0.4996721308655692 0.3753724555713295 0.3754492781520448 F F F
0.7492199147235443 0.2512721591272986 0.2511882438744011 F F F
0.8745131799445922 0.3747883901410857 0.2507090445744160 F F F
0.8745662274510144 0.2507651263403864 0.3754729872790602 F F F
0.7489986104502545 0.3750580901697847 0.3753363935939946 F F F
0.0003341299276409 0.4975515452280284 0.2510265522493132 F F F
0.1266243036058935 0.6232758682781420 0.2512957423037729 F F F
0.1260730762151212 0.4995157024517881 0.3756309971007795 F F F
0.0007772988556658 0.6231912876900713 0.3758295531889770 F F F
0.2508286332225645 0.4995407564383473 0.2513956796819857 F F F
0.3753735333960095 0.6238438248505234 0.2512049798337150 F F F
0.3750660354209570 0.4994417254301865 0.3754218833215826 F F F
0.2509032416176230 0.6240790831342222 0.3754314753579653 F F F
0.4995976612364496 0.4992711750419525 0.2509693955606406 F F F
0.6237950551838994 0.6230738693678971 0.2511890762404025 F F F
0.6244180070136637 0.4994282586040004 0.3755041522214395 F F F
0.4994665010479276 0.6239014729964349 0.3756242732666849 F F F
0.7490099529089924 0.4986221558854058 0.2512383950413323 F F F
0.8745393638143257 0.6214459160478412 0.2527648205125893 F F F
0.8745065186402176 0.4987016767785133 0.3757108292062666 F F F
0.7486516820846816 0.6231811670413511 0.3763613626059416 F F F
0.0038196246224782 0.7477797573029599 0.2522181176070536 F F F
0.1271619776537509 0.8741945714920930 0.2517990303087527 F F F
0.1265802516258259 0.7486641790889652 0.3762557788909041 F F F
0.0027107811935147 0.8750186970181303 0.3780301955627561 F F F
0.2515990960552360 0.7484655244020081 0.2516521596022960 F F F
0.3758784606271515 0.8743274725188831 0.2516251935841914 F F F
0.3751401833161578 0.7488888593408256 0.3754829629190344 F F F
0.2506417518370687 0.8743553147213394 0.3755379023936862 F F F
0.4990727712572865 0.7483433906106712 0.2517068407741512 F F F
0.6208720114683994 0.8744052452279324 0.2536268281050746 F F F
0.6233808339264602 0.7483271814713427 0.3764749865231830 F F F
0.4990535318869204 0.8741689245068442 0.3761870693018796 F F F
0.7461784493311986 0.7459315607974171 0.2540143891997944 F F F
0.7475840215750924 0.6219804361030731 0.8737766388804158 F F F
0.8751298054571311 0.7471643187321610 0.3773877157643178 F F F
0.7472444044421747 0.8747434300339975 0.3773794448153382 F F F
0.8740523529812468 0.4982482156614203 0.8739494303243768 F F F
0.1256868881466675 0.1265684798096900 0.4991849694689284 F F F
0.1261820463878743 0.0020134361190144 0.6213477081728848 F F F
0.9993365488423623 0.1276444223097578 0.6234879859928464 F F F
0.2510648707356799 0.0006292707160600 0.4992309673685352 F F F
0.3752037153956067 0.1265946393165226 0.4995778666003892 F F F
0.3766060045155198 0.0007952157188747 0.6230100179097349 F F F
0.2513284232667092 0.1268191458154313 0.6238258744017720 F F F
0.4995712489236313 0.0004720217365069 0.4993808195978200 F F F
0.6244000093105895 0.1262830425095251 0.4990688405263418 F F F
0.6229643057892056 0.0005947719439102 0.6221738967154524 F F F
0.4997757208420410 0.1266592520611781 0.6229974811969224 F F F
0.7489672948264806 0.0007532666036949 0.4995950790534135 F F F
0.8744400232258868 0.1268045767229821 0.4997285727481098 F F F
0.8727855347706179 0.0010625759180681 0.6219685660338097 F F F
0.7487380342206672 0.1267050367234701 0.6235087811217276 F F F
0.0003237696236740 0.2509936981069032 0.4993442512452362 F F F
0.1257689130213821 0.3754199030598716 0.4996384503453604 F F F
0.1259809086526705 0.2518388069521446 0.6239003391977599 F F F
0.0005193971534274 0.3750320126086348 0.6246819989777274 F F F
0.2506916707190668 0.2511833268409732 0.4994962318453150 F F F
0.3752950597435342 0.3752525011890098 0.4995973875804760 F F F
0.3755958621107652 0.2511898464812285 0.6237399763924311 F F F
0.2511148732437758 0.3760678778908959 0.6237099578911468 F F F
0.5000065627186825 0.2511949967132639 0.4992980107200570 F F F
0.6247968708567412 0.3753402552734575 0.4995233015835119 F F F
0.6240866076184007 0.2512698268634761 0.6230455466367699 F F F
0.4999265548666640 0.3754359494188474 0.6238714693540173 F F F
0.7492516712622090 0.2510749428242509 0.4997131874365892 F F F
0.8746738959942006 0.3751787718932416 0.4998047471897757 F F F
0.8742993294186809 0.2520596839658225 0.6234065278153456 F F F
0.7488434304547160 0.3759222909875827 0.6234209927880452 F F F
0.0003752947373693 0.4993485365220451 0.4999593279481055 F F F
0.1260598909625512 0.6239567767898799 0.4991958258303018 F F F
0.1260694919660695 0.4996871692365625 0.6237590217042986 F F F
0.0003868138795188 0.6233797335848076 0.6232824547652901 F F F
0.2508065545738253 0.4998023990588672 0.4994771166906443 F F F
0.3754235747377128 0.6241271120640177 0.4995764548620228 F F F
0.3752284955159688 0.4996302497621212 0.6240778941585752 F F F
0.2513456654454114 0.6235032281187418 0.6234931871460114 F F F
0.4999429231153833 0.5000301631087309 0.4995569038051898 F F F
0.6246068465006736 0.6241227795762972 0.4995595575822750 F F F
0.6244939639544770 0.4996587635291337 0.6239225829623087 F F F
0.5000566072791864 0.6241107257033808 0.6237775217249882 F F F
0.7491730295046740 0.4993493750949139 0.4997200712825824 F F F
0.8743932914407485 0.6235263926617710 0.5000160879798216 F F F
0.8744176316457031 0.4990355629387663 0.6238245198906093 F F F
0.7488013654440080 0.6233260645940961 0.6233086670833702 F F F
0.0003866292831115 0.7487497782920804 0.4996410898025432 F F F
0.1265394405956132 0.8745908929928170 0.5000390069511573 F F F
0.1262219243888852 0.7476632482056322 0.6225745079591332 F F F
0.9986880574112031 0.8747889779330548 0.6211918807635191 F F F
0.2514054750147541 0.7485568998476716 0.4993054078414545 F F F
0.3755134169688449 0.8741138015621800 0.4993269135852163 F F F
0.3757931965161023 0.7484808580825262 0.6237568669480075 F F F
0.2530460483877676 0.8742269609288609 0.6224160548449079 F F F
0.4994899894298915 0.7485850084770584 0.4996447021933980 F F F
0.6237111371245391 0.8741344225962601 0.4995870249940308 F F F
0.6239386703838160 0.7485177358311783 0.6231166190773596 F F F
0.4990209991676519 0.8739372460672133 0.6232436814919166 F F F
0.7489505087831522 0.7486949947882222 0.4999204799042089 F F F
0.8740778752045141 0.8747484680032265 0.4986064144096929 F F F
0.8739570443362383 0.7483228699996382 0.6226198823435914 F F F
0.7483309592213944 0.8740146898084570 0.6226308827249315 F F F
0.8743516044340575 0.6217857020291505 0.7471746916807342 F F F
0.7490378407665409 0.4987858722585746 0.7486372709435573 F F F
0.1401827600213517 0.9965975965622064 0.8797518304734376 F F F
0.9974007016724038 0.0612878398540412 0.9412332960092143 T T T
0.2558016872233889 0.0008269770716225 0.7477099400694831 F F F
0.3770442176902241 0.1267586750222318 0.7478970447574529 F F F
0.3776136295919210 0.0001294433395499 0.8746794586825818 F F F
0.2581390012992867 0.1281320157002333 0.8727435490455856 F F F
0.4984630690282984 0.0004252067110282 0.7477744113880029 F F F
0.6214918273921306 0.1267367859457898 0.7465580178696738 F F F
0.6184265921406973 0.0008032118965385 0.8732249502799287 F F F
0.4988284619949437 0.1268442593434554 0.8742761057471170 F F F
0.7461599854594364 0.0007059311455548 0.7444351658595149 F F F
0.8733661836986016 0.1297426223836148 0.7479988637960050 F F F
0.8634748317088020 0.9999859203147693 0.8725283360819145 F F F
0.4996124027497578 0.6229592679681593 0.8738029509081623 F F F
0.9994083285850957 0.2516858014357831 0.7510087114289117 F F F
0.1261357239318828 0.3761588340443468 0.7485720504330122 F F F
0.1275932318626671 0.2558809728120272 0.8746029606288581 F F F
0.0001167643574339 0.3765608301172222 0.8743822605061828 F F F
0.2529112393560320 0.2530607151801393 0.7481722100076270 F F F
0.3756257783451485 0.3760473055951682 0.7487554619214776 F F F
0.3772496474081714 0.2526974217697469 0.8736247881893690 F F F
0.2514563625265495 0.3766499572005638 0.8736031738408507 F F F
0.4995597967597413 0.2518418786482267 0.7480125053096587 F F F
0.6241166694013494 0.3761562922982489 0.7483819812867122 F F F
0.6213005398029045 0.2536524589274534 0.8738476378941392 F F F
0.4996497259715494 0.3764722381167907 0.8737290660152809 F F F
0.7475699616012627 0.2533645051845838 0.7467671920184884 F F F
0.8744723716379526 0.3759823215018407 0.7483529090384198 F F F
0.8768298916539372 0.2508333827475813 0.8732424235969621 F F F
0.7498463958322298 0.3739824492011068 0.8740599474070223 F F F
0.0005660159972681 0.4986324808616099 0.7481659094106823 F F F
0.1264289419106598 0.6230126303755656 0.7478950531238020 F F F
0.1265196974785864 0.4995288463035456 0.8743282591086095 F F F
0.0006244191143734 0.6192671810105802 0.8738226875341906 F F F
0.2508505017555138 0.4995575684421129 0.7486878101332393 F F F
0.3761103316773554 0.6234335316963474 0.7485609661729408 F F F
0.3757733532418813 0.4997547360754585 0.8738431653270959 F F F
0.2526529642418640 0.6224001219207596 0.8745421844176016 F F F
0.4999627162871435 0.4996647450334326 0.7483406678830354 F F F
0.6238709855676645 0.6233032954743184 0.7482318212441541 F F F
0.6244157903692064 0.4989593575568860 0.8738409355671932 F F F
0.7445203530226331 0.1285054211112783 0.8726546192120744 F F F
0.1250414051140531 0.1268086951163267 0.7553329161813036 F F F
0.9966549181732545 0.0035875148388514 0.7540500157763463 F F F
0.7433580797582339 0.8737720663159688 0.8725582483552147 F F F
0.8762091761892301 0.8752047940807723 0.2542908188518088 F F F
0.8756630539318275 0.7467749855535005 0.8750389272812257 F F F
0.1273393064696909 0.8758028671770779 0.7477167265763350 F F F
0.1265648287001175 0.7478501190534597 0.8768365408922528 F F F
0.0006518215715156 0.8826310070033631 0.8909946393257832 F F F
0.7426283949228041 0.8747603424139525 0.1267252937628765 F F F
0.8749268439496176 0.7456749798176605 0.1253884601074057 F F F
0.0062345341126534 0.8820101985364980 0.1132809197647315 F F F
0.1393773384645816 0.1277093971149155 0.0012389802798050 F F F
0.0019655027739987 0.1249642770481290 0.1214428537265905 F F F
0.8718270735031591 0.0046147810329508 0.1225284140048707 F F F
0.2549576263647501 0.1274900525099850 0.1294178144698600 F F F
0.2581433199239496 0.9982802829057427 0.0016821474589921 F F F
0.8745741001429044 0.2519909304912250 0.1264131564847912 F F F
0.1377992645975073 0.8741566205929933 0.0025412552076691 F F F
0.8746463801897493 0.1279969059542511 0.2520804366699103 F F F
