#comment
1.0
16.184 0.0 0.0 
0.0 16.184 0.0 
0.0 0.0 16.184 
Al Mg Zn 
207 19 29 
selective
Direct
0.0015128690275651 0.9987045227859820 0.5015212764938434 F F F
0.8752237215063211 0.7493831008672790 0.8722678174949484 F F F
0.1183470832120298 0.9916577009055922 0.1227297816368724 F F F
0.0042474803941602 0.1241224168564799 0.1278261481491924 F F F
0.8757491499169566 0.8747104136800340 0.7477165184600308 F F F
0.7503467338372009 0.7496712413344062 0.7478805741962387 F F F
0.4999921138697331 0.8725671955067430 0.8713405935689121 F F F
0.2304042004374979 0.1124420073227436 0.1201271402792050 F F F
0.5026239935659275 0.9938741620194415 0.9968675927561026 F F F
0.6252119917660803 0.7487641072877076 0.8720825950268452 F F F
0.6255484293723543 0.8741463159989891 0.7476582986665208 F F F
0.5003080984610250 0.7495020304712405 0.7476822001303025 F F F
0.2499174073607290 0.8728766236156937 0.8716983058907882 F F F
0.3751798420111350 0.7495253332966276 0.8722593763368229 F F F
0.3747473937410279 0.8733288600760383 0.7472574723015385 F F F
0.2498606826901122 0.7494460031531875 0.7479530267686068 F F F
0.0004935001152220 0.8742762464042867 0.8726619439573259 F F F
0.1249671877076112 0.7495833318874019 0.8721533582298432 F F F
0.1150377333573821 0.2481431466448499 0.1236186746710959 F F F
0.1250565454842690 0.8745063757435584 0.7480626266677519 F F F
0.0001113134738917 0.7498219904553758 0.7480118190080081 F F F
0.7502046300628310 0.6249299458984099 0.8725030492335920 F F F
0.8751008766996536 0.5007435083536304 0.8729392355156150 F F F
0.8754028961348416 0.6253358146933785 0.7480113690135716 F F F
0.7505259295245572 0.5009031856256260 0.7480378762610043 F F F
0.6267087566637286 0.3771193344567878 0.9994008182668701 F F F
0.5001103279875505 0.6265011162669735 0.8722479097669774 F F F
0.6252792288338136 0.5015004546187608 0.8723681706887735 F F F
0.7507402243215452 0.2527774930170782 0.9950666343168928 F F F
0.6253676259744291 0.6250005301977547 0.7480775133224605 F F F
0.4999156928011234 0.5007209809015001 0.7483859605191729 F F F
0.2501667718720896 0.6262956728258204 0.8721359655384818 F F F
0.9997377284071135 0.5032758220732347 0.9965056191655595 F F F
0.1248723507648394 0.6269123697394814 0.9966467476522354 F F F
0.1244053557173195 0.5053409509739478 0.1234218573234893 F F F
0.9992425598782303 0.6264402314086824 0.1233618974297623 F F F
0.2480237651077188 0.5036077211610465 0.9975468893542953 F F F
0.3748385312101192 0.6269961203600294 0.9969029759877108 F F F
0.3749523028553150 0.5097714041305050 0.1245110662285372 F F F
0.2493690959880507 0.6282603792319711 0.1235909873873714 F F F
0.5020401791811944 0.5046595013052514 0.9973383264468032 F F F
0.6257138378844083 0.6266544656517191 0.9973864892604218 F F F
0.6272301420660275 0.5052919869147176 0.1231196761505445 F F F
0.5007833377166754 0.6287124825753405 0.1235469987340655 F F F
0.7502543090532310 0.5016004763239005 0.9974242094918975 F F F
0.8747996535912658 0.6257308207470663 0.9966441371132690 F F F
0.8737828079263973 0.5035771903659924 0.1231520077349546 F F F
0.7505433733049458 0.6268689278673217 0.1232393449583708 F F F
0.9997837164062314 0.7480782877936690 0.9965080732257099 F F F
0.1244622657148336 0.8722286750851150 0.9969506799185697 F F F
0.1247179509302303 0.7489279318485769 0.1233268485579438 F F F
0.9998976677026814 0.8687249703307423 0.1233602559948430 F F F
0.2501042706907139 0.7496111822621784 0.9968904412305911 F F F
0.3743573534902609 0.8750694882304949 0.9975491273908235 F F F
0.3748002107184811 0.7498496643225042 0.1230398579078045 F F F
0.2490960021568521 0.8725582588791847 0.1224948619310807 F F F
0.4994348380409483 0.7498207710450517 0.9976279432080269 F F F
0.6243228658369564 0.8712190846927653 0.9977463354656353 F F F
0.6245548779788157 0.7485927356060861 0.1233795964710714 F F F
0.4977620837815969 0.8729891258519172 0.1242583066613198 F F F
0.7507958092701059 0.7484698821954309 0.9969329960811723 F F F
0.8770349165839727 0.8718322468296318 0.9977325336545345 F F F
0.8749483240818454 0.7470717060429046 0.1231190491565629 F F F
0.7502036112230723 0.8685003581466340 0.1234921744415379 F F F
0.3749312113875370 0.5012858797094554 0.8731115205311286 F F F
0.3750557401646430 0.6254165625196857 0.7483002119920603 F F F
0.1273044398941962 0.9965340078325312 0.3747095487755315 F F F
0.2497518541979439 0.5006041726736555 0.7485864038743384 F F F
0.2535946434339889 0.9941632457471398 0.2477965960747515 F F F
0.3734732058849013 0.1685351618370713 0.1625625323854364 T T T
0.9999456303240211 0.6254549999100836 0.8724115113389879 F F F
0.1247889998992202 0.5014698151719004 0.8725800625466005 F F F
0.1246762328278125 0.6256998699813521 0.7482680549360800 F F F
0.6278578837269635 0.1287857868549281 0.2517784375580915 F F F
0.0000398083879946 0.5006250872877109 0.7484752695140464 F F F
0.7506587751996044 0.3770091452678974 0.8722875441748366 F F F
0.8764216747144108 0.2509828526661876 0.8731199728266963 F F F
0.8754089589239807 0.3763729623242703 0.7479866851010929 F F F
0.7502464401827499 0.2510298150503876 0.7480422245059796 F F F
0.7490234201299402 0.1279622942538739 0.3781649431102579 F F F
0.5009283029448451 0.3763000192994543 0.8738005730199273 F F F
0.6243700331531482 0.2525199588572531 0.8721451283217267 F F F
0.6247617003643361 0.3766466393335422 0.7481005448917970 F F F
0.9971108014247445 0.3780886533891248 0.3743037655770843 F F F
0.4996375416369467 0.2511970773892608 0.7477807128577990 F F F
0.2487564734226545 0.3762204806241153 0.8729139700013638 F F F
0.3746931173448652 0.2512521060974900 0.8736874490495747 F F F
0.3751035491559559 0.3764144808660163 0.7485770659266072 F F F
0.2499420005257484 0.2509028414712236 0.7483289031453935 F F F
0.9994906987864436 0.3759521414212763 0.8737736373542994 F F F
0.1241361314030091 0.2511872057027997 0.8729802253524422 F F F
0.1248387377606936 0.3759706071516943 0.7483097534300881 F F F
0.0006391751772987 0.2508053897642364 0.7486413178659769 F F F
0.7522058558373624 0.1257603772236045 0.8697135515321209 F F F
0.8743318420160713 0.2525534426953273 0.3737895213470389 F F F
0.7518531696816531 0.3765677792857240 0.3766728039871080 F F F
0.9990999965160116 0.5045990785265488 0.2504342115993086 F F F
0.1253929710271540 0.6264973359193384 0.2502467464033497 F F F
0.1248613379940409 0.5011853122857007 0.3755912475106499 F F F
0.0001930464059196 0.6256373927030222 0.3757415024045507 F F F
0.2496101977227720 0.5025519545104744 0.2504860067448859 F F F
0.3747556823321549 0.6274268113138612 0.2505312153695635 F F F
0.3751767883865323 0.5018421966817833 0.3745382369574519 F F F
0.2502209458056239 0.6260801145168616 0.3761453988417990 F F F
0.5009855671897587 0.5059465379374040 0.2504206143046880 F F F
0.6254149143563243 0.6265401314455541 0.2495842637032135 F F F
0.6256208304663690 0.5028094065471851 0.3761628735665019 F F F
0.5000063663608780 0.6268317024528468 0.3764876267437126 F F F
0.7511030360008816 0.5030498605639219 0.2495500921312647 F F F
0.8744193572747496 0.6267716320367094 0.2497726126940251 F F F
0.8750742257363771 0.5022451122376097 0.3753112397998820 F F F
0.7500968505749361 0.6257648587592952 0.3757300360387598 F F F
0.0005505960684582 0.7476085400607567 0.2502925265256767 F F F
0.1266757258556767 0.8713087629323409 0.2498918910467363 F F F
0.1255060259046297 0.7484237428348706 0.3757130855251239 F F F
0.0022846360547653 0.8719769945735689 0.3751833984444706 F F F
0.2506109771744536 0.7492540023196297 0.2499029702150541 F F F
0.3753013819402140 0.8718897602810259 0.2502383957924926 F F F
0.3752703164070998 0.7488720091735469 0.3764929586159833 F F F
0.2503007462607720 0.8722689368410631 0.3758379145278951 F F F
0.4996210278060274 0.7492168563647232 0.2501329546158780 F F F
0.6206886108876510 0.8723021420886811 0.2499532138906327 F F F
0.6245139489897822 0.7483444613932354 0.3760111455290563 F F F
0.4996203624428747 0.8736574276136390 0.3757991795840561 F F F
0.7486256219601735 0.7484787716454206 0.2499318062526815 F F F
0.8755153392307081 0.8682749614116739 0.2491136091432943 F F F
0.8750827090137947 0.7485118201428351 0.3759266205749798 F F F
0.7483082337168906 0.8713771472152091 0.3758351380664871 F F F
0.7505884632764239 0.8735213274843621 0.8717712720782075 F F F
0.1278985134979919 0.1250069322029152 0.5012609014673564 F F F
0.1255773241748664 0.9989316655113685 0.6247314567057383 F F F
0.0007227853543272 0.1251235999876025 0.6248951059099001 F F F
0.2514996733301840 0.9987669321427520 0.5009643685700501 F F F
0.3774307320869530 0.1253424374655422 0.5023672114225105 F F F
0.3754865680605635 0.9991168149401826 0.6251929930506378 F F F
0.2507976980093003 0.1252889420766465 0.6251371549771069 F F F
0.5007227400017111 0.9989720498984496 0.5004443664619660 F F F
0.6241908868541902 0.1249141033538947 0.5013157424993224 F F F
0.6252765739021677 0.9992840250868255 0.6248760418254325 F F F
0.5003281397011012 0.1252339167810387 0.6252032527753376 F F F
0.7484816562326220 0.9996318025987613 0.5002328305506873 F F F
0.8749849443146889 0.1257243779786880 0.5019685048950151 F F F
0.8752236162632888 0.9989878153757397 0.6244423520984046 F F F
0.7501377365754983 0.1247157860358137 0.6247078399878115 F F F
0.9994738680829564 0.2521452835897663 0.5017544167893699 F F F
0.1252636507007851 0.3778555256018535 0.5017647499192048 F F F
0.1255812966657042 0.2511317172100989 0.6254848710175184 F F F
0.0000936044446891 0.3767859050485525 0.6252732038982430 F F F
0.2525992726798975 0.2517715194915708 0.5014966985373623 F F F
0.3759624315942180 0.3769575731878397 0.5000025089075688 F F F
0.3758295676713878 0.2511170350653321 0.6252867731480651 F F F
0.2506451898777659 0.3762922300849553 0.6251529056761775 F F F
0.5001585266638393 0.2517953475032667 0.4997639106006695 F F F
0.6246387873413070 0.3760811426082248 0.4992059565992040 F F F
0.6246100074731816 0.2508262616716837 0.6246122123821050 F F F
0.5000525392312093 0.3762209606601836 0.6246003226188037 F F F
0.7501222328703621 0.2515052341686000 0.5011333602843004 F F F
0.8750945272562030 0.3769394182830030 0.5004195475096658 F F F
0.8751821824368633 0.2509072917800020 0.6252139053382716 F F F
0.7498259702348384 0.3768971882955305 0.6246971343532532 F F F
0.0001003285273131 0.5017710660367078 0.5006485265938729 F F F
0.1250152357320633 0.6256625439077522 0.5002734201809322 F F F
0.1255242618874790 0.5010273745130962 0.6249104010255312 F F F
0.9999805736110079 0.6253541610513311 0.6245940191266105 F F F
0.2503577888724015 0.5009283310437841 0.5000571446407003 F F F
0.3750686987844699 0.6251821971296478 0.5000174391651927 F F F
0.3753381848928231 0.5005747815665642 0.6247654205205507 F F F
0.2503150468408235 0.6254175051064272 0.6246192527919827 F F F
0.5000821835974415 0.5011363403055268 0.4998890874935112 F F F
0.6253815865714133 0.6254200366444443 0.5004008229452036 F F F
0.6246779352762016 0.5005643097563329 0.6244274638458289 F F F
0.5003094554033789 0.6253794779459320 0.6245891821252960 F F F
0.7501568990487553 0.5016353440541966 0.5004417562014414 F F F
0.8752076024532824 0.6252074970217621 0.5003382808122305 F F F
0.8752231473816500 0.5009285251356584 0.6244647464740185 F F F
0.7501067690951310 0.6251140075380707 0.6245256597645344 F F F
0.0000456166447806 0.7489466655824195 0.5006360547795110 F F F
0.1255792379539573 0.8731555640957364 0.5006489972720646 F F F
0.1253823749842468 0.7497621965683677 0.6244223629815581 F F F
0.0005032321947338 0.8742516801146659 0.6248042715544991 F F F
0.2501501829184404 0.7490843920508961 0.5003226528016788 F F F
0.3753810321277180 0.8730810305234861 0.5010408169597037 F F F
0.3754067165891742 0.7487462257783175 0.6245124062474274 F F F
0.2506016935208905 0.8738647879790464 0.6241995085999191 F F F
0.5002386734873205 0.7496374538315776 0.5002692628458185 F F F
0.6248974598063090 0.8740297467750290 0.5005555371658231 F F F
0.6250407447850090 0.7495321078442799 0.6242970827612723 F F F
0.5001920733661267 0.8743612406659204 0.6247452999916554 F F F
0.7502245180272192 0.7490885313336436 0.5006296532019551 F F F
0.8753056919453717 0.8736038263382926 0.5012027012396840 F F F
0.8750972936859001 0.7495008771366544 0.6245066023376387 F F F
0.7499890205078223 0.8745070651010719 0.6243820688444585 F F F
0.0000427119802772 0.9994753628903690 0.7478595437903007 F F F
0.1246972155004263 0.1250564536516467 0.7479649628753405 F F F
0.1241598723071377 0.9988298172941685 0.8722254566836919 F F F
0.0003260803034169 0.1251224128824521 0.8725900661345481 F F F
0.2498505151225358 0.9989763443359471 0.7476808022139966 F F F
0.3748729054250169 0.1252529525030985 0.7480889766191116 F F F
0.3748875000582751 0.9959906425331739 0.8693419344330897 F F F
0.2478321087761947 0.1240550635040557 0.8709259155646657 F F F
0.5002679071507767 0.9988549038687615 0.7474083453967728 F F F
0.6254877131768004 0.1252616650973213 0.7475919213484645 F F F
0.6250196977922886 0.9982309948628664 0.8701124631904986 F F F
0.5001038320040300 0.1248881815191886 0.8702158205297128 F F F
0.7512227285068722 0.9990235661162049 0.7477524592861906 F F F
0.8761898743873775 0.1250820985183957 0.7475313215097443 F F F
0.8774047686530733 0.9996808520675727 0.8723711204146646 F F F
0.3739650642680865 0.1154597653461094 0.9975185999693498 F F F
0.6264413018892619 0.1254776827642725 0.9991830077326135 F F F
0.7515027037864969 0.9990827574431190 0.0005518413734997 F F F
0.8807346741932549 0.0026974721261908 0.1268635100487503 F F F
0.6255464230475676 0.3744865924203978 0.2492492429923266 F F F
0.4987943663048955 0.2419878299402815 0.2507091737460377 F F F
0.9988461345805929 0.3781414527339134 0.1227232458375320 F F F
0.2498940598465672 0.2500618930567462 0.0094222719220743 F F F
0.3788737277644947 0.3752108416067362 0.2405340636883590 F F F
0.2481209329017630 0.2550506301835753 0.2383917290972532 F F F
0.1264524346048582 0.2549841436529223 0.3722362121787606 F F F
0.3744373649566596 0.3788131147293178 0.0080445890040651 F F F
0.2615978695192674 0.1233415586995595 0.3673815101899448 F F F
0.8754641034976726 0.9986399669371873 0.3721543286078629 F F F
0.4964526230102811 0.2505456127104311 0.0148430785848681 F F F
0.7445334969228019 0.9996162996531714 0.2477059491519961 F F F
0.8726992912776337 0.2482387428001568 0.1249851644366733 F F F
0.0015618349295377 0.1257311547656331 0.3694962945864880 F F F
0.4900635046438925 0.0120198347357465 0.2524009800703739 F F F
0.3746570763972815 0.9941509956888852 0.3795353069900640 F F F
0.6236515551124882 0.9987659698903408 0.3768352621930685 F F F
0.1285270146826059 0.1203876184001754 0.2505495005541085 F F F
0.0045585709404387 0.9939069725904551 0.2499765394601313 F F F
0.7521861647755901 0.3799474664907717 0.1225934748321596 F F F
0.4988578183413618 0.1253890490764663 0.3832573576692487 F F F
0.8741408778857765 0.3766265662134100 0.9967205100662367 F F F
0.5067367387849382 0.3870011755576004 0.1235067864121706 F F F
0.6353492120371577 0.2519061046920225 0.1244054745954101 F F F
0.8709793852461984 0.1280998357633422 0.2511549960716297 F F F
0.2421969745741135 0.3861454207586144 0.1232201171746021 F F F
0.9973191246113966 0.2549301518473777 0.2500396864633435 F F F
0.1225771422981770 0.3821440828802148 0.2497663028335932 F F F
0.3749585540549924 0.2560592958872587 0.3777783401885139 F F F
0.2513379714936297 0.3796390258297374 0.3745791531126808 F F F
0.1239741447544984 0.3774341122824594 0.9959430413085923 F F F
0.9999843607257314 0.2498216617793574 0.9959311360450936 F F F
0.7507923321925677 0.1257909861922118 0.1253874396180693 F F F
0.6259348791737340 0.2512082060565265 0.3788556067731013 F F F
0.8775481281604539 0.1260405460235532 0.9955471187792218 F F F
0.4999440897874562 0.3772095256914916 0.3757168411896518 F F F
0.5139912334413786 0.1158328010175501 0.1211181812877908 F F F
0.6225983550786307 0.9929865634565647 0.1248154664246796 F F F
0.7495663602241323 0.2515839773252275 0.2531008031835931 F F F
0.3710945595953917 0.9947394424254210 0.1235690355906795 F F F
0.8730642545378606 0.3795477781146520 0.2499605083976450 F F F
0.2462690832414111 0.9938850511319633 0.9948760350434601 F F F
0.1221321620424198 0.1230211170336282 0.9935607556414390 F F F
0.0005260871111243 0.9989634690903003 0.9966954048824874 F F F
