#comment
1.0
16.184 0.0 0.0 
0.0 16.184 0.0 
0.0 0.0 16.184 
Al Mg Zn 
204 20 31 
selective
Direct
0.9984737157196292 0.9984923242646330 0.5035917900174336 F F F
0.8749370706803908 0.7492317518577051 0.8724899056763786 F F F
0.1217317277814274 0.9971692226379384 0.1204461452680496 F F F
0.0035080611876972 0.1295906306592392 0.1184018978891478 F F F
0.2486839944192358 0.9978084412792914 0.9970625944258327 F F F
0.3727598432551933 0.1223421828365415 0.9991922871975222 F F F
0.8749344479101085 0.8738464826408308 0.7480299394967604 F F F
0.7501234981653339 0.7489013671257364 0.7474895238526427 F F F
0.4975175420445460 0.9981964808292826 0.9996963960098100 F F F
0.4993583409362794 0.8740471870215555 0.8729239190111820 F F F
0.6248506146814785 0.7494766201345556 0.8726951431486786 F F F
0.6249480717748264 0.8739316120804976 0.7479501218056888 F F F
0.5000859704302153 0.7499060714448648 0.7479908567641745 F F F
0.2500128247372459 0.8735459741067014 0.8722445026936385 F F F
0.8811885337118387 0.9980632190114818 0.1257626257281974 F F F
0.3751725504411931 0.7499478351931491 0.8727079057970751 F F F
0.3749697075877025 0.8742228031665106 0.7483038885041831 F F F
0.2499450972132520 0.7496124365138542 0.7480055709752604 F F F
0.0003807453966649 0.8736236061989054 0.8724989443141291 F F F
0.1250448693280786 0.7497581099330258 0.8722325119609332 F F F
0.1245266387318813 0.8737849399190241 0.7481553585565847 F F F
0.9996154168189832 0.7489975878678596 0.7479827265092898 F F F
0.7500215367387459 0.6261563377007007 0.8727939018825749 F F F
0.2417450556675413 0.3884616546643779 0.1204338600578326 F F F
0.8753399389640991 0.5009366276759196 0.8726795083440312 F F F
0.8751950724642322 0.6252212923517528 0.7480375407223028 F F F
0.7504758244351416 0.5008494516713480 0.7478935203896280 F F F
0.5001024804900469 0.6269434147264049 0.8722126793942107 F F F
0.7560109165827748 0.2517102299546216 0.9980281330515576 F F F
0.6257783734203131 0.5020203916338659 0.8726883207414760 F F F
0.8780394311011858 0.2523843644174071 0.1258989724091741 F F F
0.6253202162920583 0.6253804508074011 0.7479026981574681 F F F
0.0001592783740468 0.5017615795464713 0.9972038171257263 F F F
0.1246088687285988 0.6277825222505060 0.9959491608556645 F F F
0.1236952248525048 0.5088594434746193 0.1222115543798538 F F F
0.9988047202980969 0.6278920432854536 0.1225678272438568 F F F
0.2486571511960126 0.5056027827557301 0.9956943657010667 F F F
0.3749871390667182 0.6271151115620504 0.9971196835137540 F F F
0.3755016675127721 0.5072413796685243 0.1244257002295748 F F F
0.2500012733586612 0.6284423846467153 0.1228158112989573 F F F
0.5010384185271810 0.5051700301363755 0.9978422896076822 F F F
0.6260863187399549 0.6268309189910802 0.9976480225025968 F F F
0.6269689337015936 0.5057470113303942 0.1249328447984356 F F F
0.5010833964197167 0.6284364060467112 0.1234591407387881 F F F
0.7526285424624655 0.5026033837370061 0.9977716391115171 F F F
0.8752951431869985 0.6264309236341942 0.9968857925375406 F F F
0.8771408880815268 0.5010555916557048 0.1222160473164707 F F F
0.7515363946553214 0.6269316871650307 0.1230498662602032 F F F
0.0002306154861818 0.7495398317429048 0.9963361716637398 F F F
0.1247377526638289 0.8732449395039623 0.9965250914622529 F F F
0.1248716179911888 0.7488864859731176 0.1228061348627084 F F F
0.0005020813754694 0.8725369364378891 0.1230212994472581 F F F
0.2500374179655091 0.7499011018394363 0.9965543901023843 F F F
0.3746351823990462 0.8738834600979790 0.9978316274177054 F F F
0.3755591632700492 0.7489216602125340 0.1227864322628050 F F F
0.2496071688277759 0.8716732412625103 0.1220310723521636 F F F
0.5001348515688026 0.7500868239122391 0.9977794146326975 F F F
0.6234723595687665 0.8732723504960961 0.9981270070881475 F F F
0.6254563786151563 0.7491318152712928 0.1234389904033581 F F F
0.5001713710314791 0.8731768438330680 0.1236339955067576 F F F
0.7501202361931710 0.7502220912854339 0.9973869450708951 F F F
0.8770417030238181 0.8722203742302949 0.9978718027258079 F F F
0.8750237385946733 0.7489417700341571 0.1229753048543497 F F F
0.7502651253866707 0.8728956550870617 0.1252618979464418 F F F
0.5005002987106487 0.5012503623215784 0.7477840387295931 F F F
0.2501583490944097 0.6267568648724661 0.8714851360798158 F F F
0.3748763851730546 0.5022003779375349 0.8717201391036589 F F F
0.3749302667407999 0.6255725195420975 0.7480119527097641 F F F
0.2495908459581623 0.5006300945569687 0.7479511823168167 F F F
0.0001661694168148 0.6253222984752800 0.8725877482084201 F F F
0.1246656365515063 0.5020138417407686 0.8715001569059526 F F F
0.1247300115534517 0.6256490789191345 0.7475471279877738 F F F
0.9997634392048952 0.5001938053065305 0.7480395533912401 F F F
0.6277575399567656 0.1226527087248026 0.2564131936225129 F F F
0.7524468601145716 0.3762725280193737 0.8724598887290125 F F F
0.8773082271945011 0.2504342833417658 0.8733093862403324 F F F
0.8752986604664869 0.3758606928697037 0.7484601892941554 F F F
0.7505218060711869 0.2506868664136704 0.7480277490694939 F F F
0.4996559228305403 0.3763780793720481 0.8709032556347428 F F F
0.6256718973503632 0.2506859244882801 0.8705155234553840 F F F
0.6255354172298756 0.3765028251260348 0.7479648017451452 F F F
0.4993283557045466 0.2503365741065339 0.7480139023849901 F F F
0.2485767125012799 0.3760630422949689 0.8711515825469147 F F F
0.3724731354782779 0.2494072318072092 0.8724789868832268 F F F
0.1784191109183517 0.2495048141719001 0.1821274238290651 T T T
0.3750304054173343 0.3762570871393297 0.7479503480788205 F F F
0.2497209345203346 0.2503321478127443 0.7480616765815352 F F F
0.9993747897938049 0.3759152961257970 0.8731687198306253 F F F
0.1224723873375294 0.2495050709815327 0.8706527788443186 F F F
0.6270929586836557 0.3795819003812977 0.2487146502336235 F F F
0.1245050882940223 0.3762227206129203 0.7478983683592296 F F F
0.9994929456825931 0.2505074605497887 0.7482738288524693 F F F
0.7511328908447573 0.1258483076926905 0.8712929016869381 F F F
0.8764973571991415 0.9987641752252048 0.8711397202512279 F F F
0.8749372770451919 0.1250581358239507 0.7482394941924300 F F F
0.7494449139063686 0.9991122202500579 0.7484389822973191 F F F
0.9994256062977331 0.5050132166136411 0.2471662166298406 F F F
0.1251754702398180 0.6281663284987463 0.2499064236371080 F F F
0.1249098069629341 0.5049385152730600 0.3757594714184739 F F F
0.9992473500945663 0.6254330784818850 0.3746961803206647 F F F
0.2518549020061956 0.5067387622303335 0.2494063596723635 F F F
0.3765902252799411 0.6279914635449882 0.2498828518428655 F F F
0.3771906191849293 0.5025896820078064 0.3744902246810434 F F F
0.2506594757749729 0.6263984025465121 0.3759074969433259 F F F
0.5006776630160098 0.5022123855908793 0.2500364879333756 F F F
0.6251869483909396 0.6265927074749535 0.2496938288411008 F F F
0.6257184411323514 0.5017883471094517 0.3746709475448302 F F F
0.5005651919266431 0.6265008381930858 0.3755415924782888 F F F
0.7505717068319913 0.5023277201110575 0.2486214707900909 F F F
0.8743352042364826 0.6267491610044598 0.2493002651167623 F F F
0.8740774022847727 0.5003293062965684 0.3737488530830539 F F F
0.7500332693672582 0.6254605640675297 0.3751593712293977 F F F
0.9996378007763012 0.7482048100910896 0.2493064596226438 F F F
0.1250581812093285 0.8700162109988897 0.2482138373912335 F F F
0.1246707851607931 0.7488440046618529 0.3756694965213943 F F F
0.9988237797562030 0.8710614107020396 0.3746486153649701 F F F
0.2505883610501251 0.7482561744821737 0.2496650141913642 F F F
0.3760193000894778 0.8698054538636986 0.2492771990944316 F F F
0.3758048786469210 0.7486038964058243 0.3763368951881408 F F F
0.2511522655041092 0.8705807376973231 0.3764584666460445 F F F
0.5010684901864931 0.7494046072783254 0.2494127736706901 F F F
0.6238134724404659 0.8737246225377011 0.2498649990511277 F F F
0.6249454491555012 0.7489353747739659 0.3757732398094250 F F F
0.4997900027245700 0.8726674009607877 0.3763803510475014 F F F
0.7488720070744668 0.7483351376904724 0.2494072828256385 F F F
0.8741691366517820 0.8701749828043920 0.2484717185559608 F F F
0.8741773743019191 0.7486816251615944 0.3751844253368282 F F F
0.7479770758141067 0.8723567171580873 0.3748277352432284 F F F
0.7501064031694059 0.8726759969755473 0.8717428781456494 F F F
0.1257913800535740 0.1246371099779342 0.5052580682435076 F F F
0.1252712071846848 0.9984369047060134 0.6257686532516531 F F F
0.9991247149944801 0.1243368516135260 0.6271893161548192 F F F
0.2517344818307196 0.9973410175403442 0.5034462474211695 F F F
0.3777178578687910 0.1247656019109675 0.5022944130772069 F F F
0.3753178716166319 0.9990400599260375 0.6259873313574461 F F F
0.2509185769766692 0.1241575266872471 0.6268287061306370 F F F
0.4999668761747820 0.9994861285154332 0.4992292611018392 F F F
0.6237471436529773 0.1246582860114307 0.5005277737461463 F F F
0.6240454171434909 0.9993250078537096 0.6247522684853543 F F F
0.5002142526664255 0.1249844703229639 0.6254958421474658 F F F
0.7476066209077388 0.9987593456713594 0.5013303769393105 F F F
0.8723296280365207 0.1253943253873795 0.5035452771273459 F F F
0.8737812191998228 0.9986493373258708 0.6260183731164632 F F F
0.7486153766955267 0.1244388360691006 0.6261828117600886 F F F
0.9999097260394824 0.2500060857608158 0.5027440821277457 F F F
0.1253771235965654 0.3743807962042415 0.5022036646422651 F F F
0.1251974790363254 0.2502968043769914 0.6265947555365070 F F F
0.9996606596049611 0.3757053729397654 0.6250194355846641 F F F
0.2522307061751819 0.2487528845492579 0.5026829530238107 F F F
0.3777322586136642 0.3763693086122625 0.5016309684181306 F F F
0.3760101014523875 0.2504541818347160 0.6257406603383240 F F F
0.2506407940796528 0.3759417722130217 0.6247676442234121 F F F
0.5022437526667547 0.2507415226646668 0.5001423278829020 F F F
0.6250600920073064 0.3761170774601522 0.4992208044344824 F F F
0.6248191895382548 0.2505657927788189 0.6254270453166940 F F F
0.5005706090759970 0.3755321440830311 0.6247688828249733 F F F
0.7476808275773894 0.2504954228557403 0.5021472848793528 F F F
0.8736596781015127 0.3755685391950651 0.5002956475839673 F F F
0.8745843297066338 0.2507995299507010 0.6260321367503651 F F F
0.7497930540724266 0.3762006168904341 0.6248543002035565 F F F
0.9996828959895026 0.5005245372890723 0.4994537671665653 F F F
0.1245968021894944 0.6265350861707391 0.5005362857154871 F F F
0.1250137009651961 0.5004623049881195 0.6245220798959121 F F F
0.9998583806337055 0.6247857651049442 0.6243693113506497 F F F
0.2505436893059216 0.5017489767563662 0.5010690624836243 F F F
0.3752318233404094 0.6254510891707176 0.5000903779730612 F F F
0.3756748820123891 0.5009947084624244 0.6254801923664167 F F F
0.2502204949390727 0.6253505695400727 0.6248258070085146 F F F
0.5007638498067619 0.5011235636021967 0.5001672190444042 F F F
0.6251487866284485 0.6252014791890167 0.5000941619294228 F F F
0.6249777430833124 0.5006989816993501 0.6241561820690100 F F F
0.5000779591866791 0.6256002010994502 0.6246915415348937 F F F
0.7499633440182309 0.5010269090763221 0.4995656802525985 F F F
0.8751712135386790 0.6250031709413858 0.4996923226002204 F F F
0.8749924840245000 0.5004415640672272 0.6243997745571104 F F F
0.7498826167129836 0.6248416914353470 0.6242738509655766 F F F
0.9992982236272923 0.7485376995061657 0.5003992356701118 F F F
0.1248268051515791 0.8723456668568528 0.5016139744935258 F F F
0.1248565223415966 0.7492649198243559 0.6249620898121206 F F F
0.9994925701042575 0.8733541543766861 0.6250885995356299 F F F
0.2501291562979617 0.7489379970201905 0.5008535443173682 F F F
0.3754753620158338 0.8736225606663449 0.5007298637736352 F F F
0.3753998336562306 0.7494323125713339 0.6249203006664192 F F F
0.2502977740380016 0.8732779859640677 0.6258072507711246 F F F
0.5002523222202709 0.7492793151051200 0.5003423337137025 F F F
0.6244210383643154 0.8739992661663638 0.5004123981910700 F F F
0.6247275296243580 0.7493031622099545 0.6245109266679214 F F F
0.4998499328339909 0.8748290196310795 0.6246551500595966 F F F
0.7497768831840741 0.7487456960024790 0.5001747281525739 F F F
0.8737109942314927 0.8736977066888542 0.5004183663622045 F F F
0.8745883506500121 0.7490266354744471 0.6241857979067809 F F F
0.7492851081493224 0.8741946447069061 0.6250060197012514 F F F
0.9998261398407184 0.9985962227240562 0.7483664742514957 F F F
0.1244620677928515 0.1240156911685701 0.7483492891019915 F F F
0.1242880804560599 0.9984488729770373 0.8728330551295792 F F F
0.9987950952042600 0.1238951902505694 0.8726111175421605 F F F
0.2496921032716561 0.9986514844310762 0.7490694550411537 F F F
0.3745703338172964 0.1245814459412213 0.7484378483035711 F F F
0.3740185481226627 0.9984047746864203 0.8731237872888353 F F F
0.2483875688613691 0.1241777868680755 0.8725647599165944 F F F
0.4994986031549334 0.9989887809183202 0.7483154159038080 F F F
0.6245073006054253 0.1246085890026825 0.7477770067899332 F F F
0.6234018648971640 0.9985091052012754 0.8714017698909510 F F F
0.4978370464662551 0.1242895977142125 0.8722820800432771 F F F
0.1245128377940606 0.9989537458994072 0.3754706882190856 F F F
0.8679661579944868 0.2495568422018021 0.3669225937291052 F F F
0.6239481497437146 0.1255662260170411 0.0015096898623409 F F F
0.7521229331819757 0.9979740571294893 0.9988202795363996 F F F
0.7535441931553082 0.1252013494373066 0.1301352129394718 F F F
0.4942533524088542 0.0046447377292169 0.2520584436244301 F F F
0.5051378253745712 0.2484040415110531 0.2470694759135147 F F F
0.2506367729879988 0.3756342660197245 0.3743959506477857 F F F
0.0127695878793060 0.3673099028911590 0.1229888361886798 F F F
0.3721534485015215 0.3683961723174085 0.2438604932943230 F F F
0.0023837638553850 0.3725512902260817 0.3685476649275257 F F F
0.1347570640803730 0.2418817312178829 0.3628865192071922 F F F
0.2378498201648419 0.2487411050747440 0.0056880112906301 F F F
0.3743357123999307 0.3780661555053039 0.0019617348209826 F F F
0.4972756039266981 0.2496551615359677 0.0069837281551864 F F F
0.8719490492441269 0.0004724704700448 0.3709706014071919 F F F
0.6269879457271207 0.3760362448236409 0.0012728798122394 F F F
0.9987714490472498 0.1261773886170251 0.3712985611102536 F F F
0.2536661501599369 0.9985244661337300 0.2486554308225918 F F F
0.3581793686646904 0.1437667495170163 0.2528234325868875 F F F
0.2535806470514346 0.1194364272946868 0.3870633999950010 F F F
0.3746122658831935 0.9983896573980336 0.3789423018803950 F F F
0.6250949741274275 0.9973601313562548 0.3770631405713502 F F F
0.5006757830093009 0.1267863784169960 0.3787013854147590 F F F
0.7470554005455784 0.9953194668615223 0.2492748325763673 F F F
0.7491364319429028 0.3779999022676523 0.3740579122927236 F F F
0.1219317416603300 0.1135231610655347 0.2432413195612616 F F F
0.0007535838001768 0.9940582259972690 0.2472331864011871 F F F
0.7541606808521695 0.3790425149483359 0.1235183281632509 F F F
0.8780894074887617 0.3758653819077838 0.9985350394743711 F F F
0.5036936319553097 0.3841417640241180 0.1259274227787255 F F F
0.6315406055130315 0.2532447485524164 0.1261020566930967 F F F
0.8779489101126318 0.1223808779875539 0.2448958146869951 F F F
0.7468963764897840 0.1237465396403356 0.3778170527960590 F F F
0.3664334288709172 0.2484238780446735 0.1204801224337526 F F F
0.0035605762788213 0.2455469617108186 0.2435840770890388 F F F
0.1288397027376937 0.3882910591473252 0.2510555041959323 F F F
0.3790595449864509 0.2533061635053599 0.3837048280260792 F F F
0.6282171821597584 0.2520543281109181 0.3772895187060021 F F F
0.1246415689823515 0.3805730667889829 0.9909523710259255 F F F
0.0044156122370885 0.2476113514735187 0.9950506877575769 F F F
0.5019895512466904 0.3781428206677673 0.3750979401793211 F F F
0.8762520266783628 0.1248279485284023 0.9976389226005710 F F F
0.7439703893532343 0.2546310237904967 0.2484147979665327 F F F
0.4973105605570474 0.1202469424346168 0.1251154099280754 F F F
0.6239110198485942 0.9966495831758575 0.1259925471536259 F F F
0.8739717219988113 0.3801935519556744 0.2450209254508940 F F F
0.2458493779885936 0.1151779021159243 0.1171124962265582 F F F
0.3738678269160120 0.9972425748140553 0.1220380124264092 F F F
0.1209576937696631 0.1204351461857708 0.9952643143459435 F F F
0.9994811295330897 0.9977511486935137 0.9965283301324328 F F F
