#comment
1.0
16.184 0.0 0.0 
0.0 16.184 0.0 
0.0 0.0 16.184 
Al Mg 
243 12 
selective
Direct
0.9989750786391132 0.9998480783574318 0.4985641745730003 F F F
0.1193137346836194 0.1199846416924098 0.0004204241921171 F F F
0.1216255800385166 0.9994138636442803 0.1255683524002855 F F F
0.9989431073476090 0.1204625942619065 0.1253096360174263 F F F
0.2553606949757856 0.9972327148625320 0.0006790783706236 F F F
0.3810261157938142 0.1255590947511134 0.0006321868651714 F F F
0.3798866065690172 0.9996726358393498 0.1267843601995274 F F F
0.8742902535485189 0.8761156076696383 0.7464151431134440 F F F
0.5021235736926295 0.9993793810837212 0.9999438021054814 F F F
0.6223878174231526 0.1273080395720646 0.9999231728879441 F F F
0.6225126210120085 0.0001387039800280 0.1277350070290956 F F F
0.5007888872944725 0.1262515850309976 0.1268731618136291 F F F
0.7495870759782574 0.7493654716565965 0.7482192166498149 F F F
0.8765471367159711 0.1217447273568455 0.9988613174740406 F F F
0.8758216922493069 0.0005938523914379 0.1254636365913576 F F F
0.7474989771143158 0.1258078846834173 0.1276296176536607 F F F
0.9963695145827439 0.2509822474229694 0.9981323547135158 F F F
0.1252198582430982 0.3804566702086465 0.9999829122702057 F F F
0.5009837463084017 0.8736118186683592 0.8737477899778191 F F F
0.9990573354904102 0.3792864689499921 0.1258612720500671 F F F
0.2543656043744694 0.2543432407452347 0.0007421972080612 F F F
0.3771282389977299 0.3774850709293348 0.0001003291530977 F F F
0.3774003630782701 0.2519369304144590 0.1266333366824801 F F F
0.2518992148791499 0.3772767156239956 0.1262840922437321 F F F
0.5010374350898175 0.2518183719024015 0.0003690980759104 F F F
0.6246975425031185 0.3760182819011355 0.9998467192300123 F F F
0.6249619024709052 0.2513455888538877 0.1261094876818517 F F F
0.5004729757611308 0.3758476575850833 0.1258377239359608 F F F
0.7488463570460399 0.2495856948780464 0.9986815538210873 F F F
0.8730790639123401 0.3773387812661546 0.9986147269957633 F F F
0.6246276694087247 0.7488862411011762 0.8734599552634946 F F F
0.7483823803618759 0.3766511858451058 0.1254806494471934 F F F
0.9994347241604365 0.5009196712491099 0.9998892567156431 F F F
0.1258094062421022 0.6241074007979365 0.0006030237803866 F F F
0.1261828609635650 0.5007703674271229 0.1262244366710750 F F F
0.0009418389582438 0.6224303189632641 0.1270121824962840 F F F
0.2512960481298646 0.5012695804439462 0.0001606179019054 F F F
0.3765565937994697 0.6236360689760402 0.9998120235196705 F F F
0.3760854913932163 0.5004744006842489 0.1259458113176900 F F F
0.2511397966486461 0.6247166653188678 0.1262747373613893 F F F
0.5005620256736768 0.5000539672341657 0.9999655800981734 F F F
0.6238715894267186 0.6235571772788769 0.9998717722218448 F F F
0.6241971102782180 0.4998448075281229 0.1259428135773029 F F F
0.5005251533310725 0.6243367632324235 0.1257889974914182 F F F
0.7488175294052594 0.5000541342406386 0.9993982089312797 F F F
0.8741925775302644 0.6227451833665940 0.9995322657118105 F F F
0.8736536703418748 0.5003211480060115 0.1258518767664887 F F F
0.7477510444922065 0.6228060713236374 0.1260840993672121 F F F
0.0015463673216025 0.7502821380855991 0.0056211872948082 F F F
0.1332746714790929 0.8722690458926584 0.0064963769204538 F F F
0.1248996228752072 0.7474633646517408 0.1286719745986488 F F F
0.9999299059333641 0.8776667596784400 0.1244323282467582 F F F
0.2527171035594067 0.7468555390436683 0.9998099056432701 F F F
0.3788462120354003 0.8730248714121779 0.9994215011172090 F F F
0.3775623788638596 0.7476671705948635 0.1260735519611988 F F F
0.6244281649371652 0.8743436502052495 0.7479732363006296 F F F
0.5008769455389777 0.7486125091140309 0.9998267026403108 F F F
0.6228561387680335 0.8729335291539146 0.0004434569578238 F F F
0.6242977367269712 0.7486857308771663 0.1264512345096447 F F F
0.5001659002124471 0.8736048471313700 0.1261524939705547 F F F
0.7460593639865768 0.7470429592649623 0.9993995046187669 F F F
0.8620328543468707 0.8731178756865905 0.0070305280638078 F F F
0.5006911448899400 0.7492327202205030 0.7486480119602354 F F F
0.7452777552244617 0.8745544684512409 0.1301476416323252 F F F
0.9992713416981214 0.9995299012525908 0.2516252875817178 F F F
0.1238747977529268 0.1242643350098145 0.2540089230580551 F F F
0.1247390602286316 0.9998949733505331 0.3767055870835772 F F F
0.9992218775427163 0.1249699949426882 0.3766573086187938 F F F
0.2500614638148100 0.9999186582896892 0.2540355809051621 F F F
0.3770903701463287 0.1251452532797434 0.2525429453859440 F F F
0.3763115087751007 0.0000981850256684 0.3764962568084065 F F F
0.2509005608391810 0.1255248071613786 0.3763154718710802 F F F
0.5010433408638053 0.0000634452568096 0.2519676993892384 F F F
0.6246274967574260 0.1253092149386914 0.2517769376059183 F F F
0.6250530391571515 0.0000272306573326 0.3755524021558744 F F F
0.5007076111271122 0.1255427875449060 0.3756756136347150 F F F
0.7498120775077892 0.9999159308747195 0.2506722871759688 F F F
0.8739478985325830 0.1241636131686136 0.2529386929938017 F F F
0.8737844395759459 0.9999328049976435 0.3759057887190401 F F F
0.7490165859710187 0.1252037223363834 0.3757180528073520 F F F
0.9992114569614516 0.2501300064757994 0.2536598610854928 F F F
0.1251348301872332 0.3770476774680301 0.2524222329997814 F F F
0.1254034783682599 0.2507723592650181 0.3761443469519962 F F F
0.9993427787167051 0.3757876725297162 0.3764389932942125 F F F
0.2517339403411079 0.2516073709753910 0.2532321482349011 F F F
0.3763070749293019 0.3758592467219607 0.2511237805207407 F F F
0.3762123966131979 0.2504923639023746 0.3759352732097298 F F F
0.2510880913024135 0.3758828452889678 0.3758946541720749 F F F
0.5009189830157655 0.2507880684748388 0.2511106338242830 F F F
0.6244840413277968 0.3756965575240594 0.2508495263248259 F F F
0.6245798341231310 0.2504777443041837 0.3757765327205395 F F F
0.5002122896245603 0.3755344693273807 0.3754606242308182 F F F
0.7481126019176728 0.2510883374739207 0.2524381928228909 F F F
0.8740486972532051 0.3767619826838896 0.2522100525617333 F F F
0.8736832498968816 0.2507088916397343 0.3758192037143705 F F F
0.7491531776198426 0.3756972719196491 0.3759350349088459 F F F
0.9998247890531600 0.5000940769295823 0.2519276662657574 F F F
0.1253850324676143 0.6238142657616893 0.2520820270141531 F F F
0.1254920799517082 0.5000700933434414 0.3757961126220788 F F F
0.9996201343233134 0.6243103525815095 0.3759313955235095 F F F
0.2511821859968552 0.5005085517676736 0.2512969637011708 F F F
0.3762180041930737 0.6241269469031732 0.2510871671776224 F F F
0.3758824617516252 0.4998627885236466 0.3755461832271411 F F F
0.2510739274637904 0.6238538607747766 0.3760459852944748 F F F
0.5002003372473485 0.5000399968473221 0.2506570968000830 F F F
0.6244801660885219 0.6242663699296978 0.2510266595279422 F F F
0.6247380644986521 0.4999856140566659 0.3754494853868798 F F F
0.5002953265586468 0.6245006599365326 0.3754224112681326 F F F
0.7490256947937783 0.4998781299638582 0.2513343406877306 F F F
0.8742532367474508 0.6228072509322492 0.2526024450916517 F F F
0.8740623891973608 0.4997320393354368 0.3762414179898142 F F F
0.7493009788199869 0.6240851447882185 0.3761350354816408 F F F
0.0004662242196631 0.7498050448886243 0.2526253617770215 F F F
0.1238234966242601 0.8743286550209690 0.2530531595778844 F F F
0.1254973130127150 0.7490067255491381 0.3760588792753678 F F F
0.9991891922444720 0.8747976446619720 0.3759990223808005 F F F
0.2514439638438160 0.7476324433236031 0.2532331198167017 F F F
0.3780041511212141 0.8744674287242404 0.2533567077975589 F F F
0.3764724062694702 0.7490305085278708 0.3761568427903784 F F F
0.2510066243925246 0.8743310475814209 0.3758018083486291 F F F
0.5007138262382899 0.7491716022831437 0.2512586178763848 F F F
0.6233624914702229 0.8745290928112937 0.2523304292871704 F F F
0.6241528238858645 0.7494627194327519 0.3759888140813132 F F F
0.5005832704954842 0.8745809591984575 0.3764104558189131 F F F
0.7477337363078629 0.7488487816303118 0.2530452959221955 F F F
0.8743041224650618 0.8757517921351687 0.2521842726128053 F F F
0.8737699303584030 0.7495626580471993 0.3752966724265307 F F F
0.7490507947074567 0.8748192340978757 0.3757367162818288 F F F
0.7467199640288027 0.8745939309808568 0.8722450075227465 F F F
0.1251687773111933 0.1256929845762197 0.4998722205007701 F F F
0.1248124986226045 0.9986926800874780 0.6207572362835211 F F F
0.9972921176621761 0.1241055693177513 0.6222589422319946 F F F
0.2507247150600249 0.9995969474317937 0.4992726297759931 F F F
0.3760791947822382 0.1254104041430584 0.4997141020456214 F F F
0.3769116020533527 0.9992777235745712 0.6228187490060585 F F F
0.2525137150238783 0.1253727776830937 0.6219804899288767 F F F
0.5005285299016482 0.9999410777639188 0.4995430320534930 F F F
0.6248863697036176 0.1252400466281670 0.4998910178494271 F F F
0.6247395643978112 0.9995860224157589 0.6236653120294982 F F F
0.5007865568129877 0.1251665205873718 0.6238150402270561 F F F
0.7494992460809641 0.9998320339738370 0.4998967516853768 F F F
0.8735428455191827 0.1255900113583498 0.4995036773730580 F F F
0.8735328485381612 0.0002302390886091 0.6231151422658584 F F F
0.7491538873274664 0.1255465466207216 0.6238781932632254 F F F
0.9993284579243752 0.2505312326085122 0.4995418074526207 F F F
0.1252950873476892 0.3759871256768596 0.4995697591423200 F F F
0.1246903907258659 0.2525376055328780 0.6224916293853456 F F F
0.9989166387863605 0.3763223440125132 0.6240024854648815 F F F
0.2509576514507686 0.2510811487950392 0.4996242835033495 F F F
0.3755942515782706 0.3755066287074020 0.5002400454712068 F F F
0.3765866812075009 0.2509042496941183 0.6237463432397774 F F F
0.2508565802668529 0.3765381177294071 0.6238316668334516 F F F
0.5003992751508503 0.2505536570944741 0.5001344963408939 F F F
0.6246940234262299 0.3755407263062217 0.5001803275758279 F F F
0.6247655167147160 0.2506320854670803 0.6242300415403231 F F F
0.5003250535150745 0.3756822802906988 0.6245741353184472 F F F
0.7490777097320618 0.2508107740563837 0.4998798104916489 F F F
0.8741786613813397 0.3752688115871980 0.5002203137735900 F F F
0.8734425000714838 0.2508989194541502 0.6236676388881000 F F F
0.7494057760882507 0.3757995897181584 0.6243804589098738 F F F
0.9995849050242783 0.4998491478043284 0.4997529209539872 F F F
0.1251158020289641 0.6243514348746056 0.4995729025638813 F F F
0.1251428838467710 0.5006221318367262 0.6240983860703838 F F F
0.9994325356189920 0.6244801250191611 0.6233937516029147 F F F
0.2506777693609533 0.5001972626905506 0.5001322340053626 F F F
0.3757996729376819 0.6244988501815216 0.5003062306196769 F F F
0.3758015204489031 0.5002147660574751 0.6246719624231662 F F F
0.2509562059704887 0.6243906289891969 0.6239688886749555 F F F
0.4999883227375062 0.4999434787269948 0.5000910064510489 F F F
0.6246639715222196 0.6247288579116929 0.5001648580994464 F F F
0.6246831189455146 0.5001868247885667 0.6245976927602446 F F F
0.5003170254980684 0.6247307760461289 0.6247364010378150 F F F
0.7495712017806715 0.5000423958181698 0.5002750517759389 F F F
0.8743707646221432 0.6247293610356938 0.4999386319499142 F F F
0.8741905743143366 0.5002607763681367 0.6243579490200798 F F F
0.7494113022047241 0.6244793375122201 0.6240193464511810 F F F
0.9994314658792117 0.7495402879284960 0.4990639319213114 F F F
0.1253711253735956 0.8738763916417833 0.4986258394229807 F F F
0.1258150975661822 0.7487076416483622 0.6220949956122906 F F F
0.9987668271526575 0.8750360124925035 0.6211753014866438 F F F
0.2512720568204133 0.7491289447209233 0.4996139049934572 F F F
0.3759318560791681 0.8744747224914696 0.4998437376989933 F F F
0.3758590214247303 0.7494616771655381 0.6242997938518490 F F F
0.2512358559590934 0.8737923281349476 0.6227717998148669 F F F
0.5002211343165320 0.7494354183144872 0.5003509312878218 F F F
0.6248973535727199 0.8744701226994324 0.5001078646158073 F F F
0.6250664235133409 0.7496496062352573 0.6243101303319489 F F F
0.5005014956354457 0.8742689669036986 0.6241157389973974 F F F
0.7492598503696740 0.7496354574809982 0.4997552146212263 F F F
0.8738484928330184 0.8745562617793939 0.4992714742250230 F F F
0.8733172759764307 0.7494639518506803 0.6229586269840657 F F F
0.7496623455917506 0.8746113991904201 0.6241077778888025 F F F
0.9967561317311957 0.9953566351631032 0.7508915716213618 F F F
0.2560043065765412 0.8723518428747283 0.8732360155005494 F F F
0.3767426306852998 0.7484066224474980 0.8737152483984691 F F F
0.9958344199419058 0.1194545516057361 0.8756074008546680 F F F
0.2550456223958891 0.9977892369551657 0.7448476966606185 F F F
0.3780440405011201 0.1253426604055378 0.7472082275571378 F F F
0.3793040223035999 0.9979486629640758 0.8736221081660660 F F F
0.3772626848410942 0.8737783815381670 0.7480618730681594 F F F
0.5009178341304809 0.9996075187435008 0.7483151458325945 F F F
0.6244621819936039 0.1256409158166981 0.7483154810897078 F F F
0.6229197649478621 0.0002491876743152 0.8725216790909898 F F F
0.5003198455093517 0.1257920827714673 0.8735534509926919 F F F
0.7474543378746034 0.0005291917569432 0.7469168728882812 F F F
0.8736692374150339 0.1256033871534414 0.7475507379749834 F F F
0.8676174812852976 0.0007328108846119 0.8698601464020986 F F F
0.7479612867331820 0.1275283475630190 0.8724166534726362 F F F
0.9964305209287601 0.2516231919082187 0.7478663819404122 F F F
0.1247970726043943 0.3772106825998480 0.7477691755035621 F F F
0.2514287890356226 0.7489617531664988 0.7477277158764608 F F F
0.9976595268591328 0.3782232773353192 0.8736056852987464 F F F
0.2531961602199853 0.2532983220457279 0.7465781658128022 F F F
0.3765520350504197 0.3764449674892417 0.7490242625441836 F F F
0.3784985828239258 0.2529355539452585 0.8741571858412555 F F F
0.2521060083954775 0.3777157988827243 0.8740807049313456 F F F
0.5009343226348217 0.2510742633338831 0.7486046548729436 F F F
0.6247666102357573 0.3758841308617618 0.7490230971838564 F F F
0.6241647539679195 0.2514303763632783 0.8739004097935100 F F F
0.5008170507543886 0.3766010837754199 0.8741800755150710 F F F
0.7490167519774552 0.2511586444287994 0.7482241822539268 F F F
0.8735188093555599 0.3760645532693345 0.7488356690466166 F F F
0.8735713360142990 0.2505843549983745 0.8735135669195246 F F F
0.7491323900412714 0.3756622476988337 0.8737633769375750 F F F
0.9993584160007523 0.5004142643562515 0.7483658394135460 F F F
0.1251372364449989 0.6246586642092878 0.7480049556158852 F F F
0.1254434337397851 0.5006951072128893 0.8738417688160975 F F F
0.0000273742327968 0.6230284921027598 0.8739737396233075 F F F
0.2507323271357045 0.5007625543119341 0.7487535035636141 F F F
0.3756822213878386 0.6246345085155224 0.7490244809401432 F F F
0.3756358704666123 0.5008479593961100 0.8739624236820075 F F F
0.2496943930368128 0.6253388832752046 0.8740940244364849 F F F
0.5004094629492850 0.5004268169433310 0.7492745284075534 F F F
0.6251023461989544 0.6246445582192578 0.7488535665440362 F F F
0.6251408776484034 0.5005273944422716 0.8740077031352619 F F F
0.5005849406002344 0.6244739455356199 0.8740011354302191 F F F
0.7494099591887247 0.5002219079363983 0.7488878912727106 F F F
0.8743044884521689 0.6244660100599320 0.7482642232856316 F F F
0.8738102149307927 0.5003551198292294 0.8735368261397429 F F F
0.7501368234132891 0.6251578905157723 0.8736551418917664 F F F
0.9992517789309279 0.7507333089923864 0.7426459048026082 F F F
0.1251420150085326 0.8746732843446368 0.7420445544966998 F F F
0.9955235449405561 0.9309438314536209 0.9447791490393892 T T T
0.1178950240029022 0.7576956369135561 0.8735354016547309 F F F
0.1235907288993388 0.2520369421244739 0.8759826789247531 F F F
0.2553003531279588 0.1256762919044079 0.8760271368240199 F F F
0.1303570986981980 0.9950930324096191 0.8721508055542292 F F F
0.1237870607468203 0.1247867378617624 0.7451999704241100 F F F
0.8735681089974666 0.7476096016253967 0.1280064256810930 F F F
0.2533897586417674 0.8743658593916741 0.1294218518536098 F F F
0.8747992363622694 0.2503954642290318 0.1259682427776254 F F F
0.1228116567842820 0.2515653315776417 0.1246639368305501 F F F
0.7460715889201588 0.0019000802699386 0.0005089339215274 F F F
0.2517585467408491 0.1236752110586375 0.1253707012571692 F F F
0.8822671681281099 0.7566344301093235 0.8753430166394395 F F F
