#comment
1.0
16.184 0.0 0.0 
0.0 16.184 0.0 
0.0 0.0 16.184 
Al Mg Zn 
225 20 10 
selective
Direct
0.0001022262777313 0.0004187801928542 0.5010707626285292 F F F
0.8716145469169807 0.8736470377027228 0.7426508131339120 F F F
0.7476600938746435 0.7484837707280332 0.7482864170229560 F F F
0.5000582963927735 0.8747056033367815 0.8733075766601145 F F F
0.6233891556641161 0.7492068198394630 0.8732723481597695 F F F
0.3783411872910961 0.1284350579093998 0.0008392911937365 F F F
0.3787211927562949 0.0009270997760315 0.1282496135947544 F F F
0.2517132516442837 0.1297400948153773 0.1291089117950442 F F F
0.4988432108202968 0.0013004562002879 0.9998910491746206 F F F
0.6223399273890197 0.1272194309954024 0.9986076718119477 F F F
0.6201364837684340 0.0010872665174725 0.1260358562245082 F F F
0.5000429375987542 0.1267129528136536 0.1262713215858096 F F F
0.6250066835100655 0.8749518823311369 0.7502575549029902 F F F
0.5002541364889642 0.7487514982891871 0.7485095238938350 F F F
0.3781542700534627 0.7473020332272737 0.8737610732177150 F F F
0.3776088660579081 0.8739845649631601 0.7469553311077384 F F F
0.9984743072394285 0.2608189103705748 0.0015709831866422 F F F
0.1262882085631461 0.3764271952266784 0.0009414648966668 F F F
0.2526424582505142 0.7460816980819323 0.7457246398521176 F F F
0.9995906901282486 0.3775199905648843 0.1273602530687260 F F F
0.2516696631962170 0.2535248091928174 0.0020342288337430 F F F
0.3758859473996284 0.3759846145280045 0.9998683482229926 F F F
0.3762528801012304 0.2519716397435680 0.1266659775080436 F F F
0.2510688691563700 0.3761497747806709 0.1263149599178017 F F F
0.4996549971928398 0.2518717641106647 0.9997832575010466 F F F
0.6230850405304207 0.3762991651308895 0.9997274468481295 F F F
0.6217857783161774 0.2528190112963016 0.1260821680473729 F F F
0.4988841725998969 0.3757723995920004 0.1263058726695149 F F F
0.7466885178694221 0.2542403401987898 0.9996590403385055 F F F
0.8733378109969505 0.3782971527444099 0.0012017979337740 F F F
0.1284535119575897 0.8726274906161264 0.7385337656498085 F F F
0.7486786386926838 0.3756868161050946 0.1266000221855039 F F F
0.0013533990012023 0.4982540886356180 0.0001404869643139 F F F
0.1276242798688115 0.6212278470590694 0.0001961078673405 F F F
0.1260998899848508 0.4988152932377246 0.1257407898852552 F F F
0.0018305941069311 0.6199059043041903 0.1267281959928579 F F F
0.2518816139560098 0.4990240050979033 0.9996156218360515 F F F
0.3767592783791237 0.6227443500741767 0.9999927932973594 F F F
0.3757470337875066 0.4993431153504532 0.1262889360284656 F F F
0.2519879215237318 0.6220349805946961 0.1262531834618208 F F F
0.4990225385994190 0.4988723778410551 0.9998645452377984 F F F
0.6216077607428805 0.6215822113563415 0.9996010635746120 F F F
0.6232828336059201 0.4986182029999764 0.1261186306244490 F F F
0.4998196776095393 0.6235432645773251 0.1262818893133420 F F F
0.7471660259919866 0.4983324212756248 0.0002062498232597 F F F
0.8741795359606560 0.6161697294858501 0.9992277791961383 F F F
0.8743994392197484 0.4990990301373707 0.1268667611938521 F F F
0.7462998519984146 0.6197640670195503 0.1267346687426099 F F F
0.0036785567342227 0.7391212415381803 0.9990700470961650 F F F
0.0006666384581240 0.7420508738846219 0.7410423433132231 F F F
0.7470375037141739 0.6206974003727511 0.8729932426348616 F F F
0.8743521244128653 0.4983688207235613 0.8732487624464608 F F F
0.2549502758899838 0.7448293838588785 0.0018003124287901 F F F
0.3787164048867495 0.8731172074832635 0.0010623943042711 F F F
0.3776243659438147 0.7478851085317816 0.1266240303567423 F F F
0.2555110091617113 0.8723954827959602 0.1280972429147220 F F F
0.4997368748827359 0.7480746114116467 0.0001057097155046 F F F
0.6190554272551390 0.8759082851875457 0.9993615721882062 F F F
0.6224459852642794 0.7485142539701602 0.1261762228348053 F F F
0.4997961614790774 0.8743099229532461 0.1265924388735632 F F F
0.7413412749488894 0.7412147216016561 0.9995449064062050 F F F
0.8734631511337384 0.6219486851340436 0.7476959711876990 F F F
0.7481914781904581 0.4993440322067457 0.7478287156735297 F F F
0.5000823674013583 0.6238430297069125 0.8737311163039809 F F F
0.0024472728083824 0.0041916146116284 0.2645576337004884 F F F
0.6231809635933432 0.4995236959912460 0.8735427597473920 F F F
0.1284263240054854 0.0017553207407964 0.3796015652880096 F F F
0.0013093997457313 0.1284152614536693 0.3801364166483033 F F F
0.2532181070505484 0.0020980559509981 0.2521234026170078 F F F
0.3765577402981116 0.1264783441109573 0.2517407067145822 F F F
0.3764584774072156 0.0004691670569479 0.3763315659427421 F F F
0.2516140117094434 0.1265792301778947 0.3763059148579270 F F F
0.4998850146805369 0.0001358615539837 0.2519599471545603 F F F
0.6217846664976772 0.1270028450793225 0.2530771479784262 F F F
0.6222059919695133 0.0002417885776735 0.3776372965682243 F F F
0.4992512687288930 0.1263027513870925 0.3763977828262394 F F F
0.7449205746303063 0.0016402662428553 0.2571811806857380 F F F
0.8749350102316130 0.1324425801318828 0.2591402796976958 F F F
0.8731229318381994 0.0022229922169954 0.3804073772100224 F F F
0.7478544294513418 0.1271952611139798 0.3779495529207409 F F F
0.0009754874919877 0.2538340355086450 0.2533750418553880 F F F
0.1259492844762736 0.3761702621244414 0.2511036180168875 F F F
0.1263172878777467 0.2513249572204828 0.3763293649419745 F F F
0.0003526571718607 0.3762544950497104 0.3762256064669142 F F F
0.2508658098679905 0.2519894403124676 0.2522920268738318 F F F
0.3753218076691220 0.3753470513659236 0.2519505878952445 F F F
0.3754357682058776 0.2509343335510120 0.3759446840733269 F F F
0.2509877381768381 0.3754654464009609 0.3756872661391116 F F F
0.4989786810733701 0.2515236130404630 0.2516502164166713 F F F
0.6232995174581235 0.3758708392516621 0.2517842254610433 F F F
0.6233266318554983 0.2513603271621133 0.3763695807715824 F F F
0.4995594551074425 0.3753417693449975 0.3755201631435831 F F F
0.7479874094202069 0.2536371117055324 0.2539520121527793 F F F
0.8744420475813263 0.3755517427891223 0.2515137697255360 F F F
0.8742495102042994 0.2535576820311227 0.3782974296824075 F F F
0.7485613461482371 0.3759199744247702 0.3761087231765449 F F F
0.0001166491142704 0.4988732587704097 0.2518212445725832 F F F
0.1270138053240360 0.6222069836036086 0.2514657124275024 F F F
0.1263621222719645 0.4990229713856690 0.3759411535254060 F F F
0.9999755327094160 0.6207035909790538 0.3781089967837928 F F F
0.2512699000540068 0.4991956311284661 0.2513963949059008 F F F
0.3763837593155081 0.6234195045420470 0.2514278064711064 F F F
0.3758800159309684 0.4995439956965840 0.3754075659661742 F F F
0.2515956471633473 0.6228914469429115 0.3759828085956929 F F F
0.4994493186407225 0.4993635161751938 0.2512739503476748 F F F
0.6229722236858566 0.6229382099935569 0.2513542582905516 F F F
0.6236882440459192 0.4996077756708721 0.3757625639439195 F F F
0.4998582407434401 0.6238003786781637 0.3756072964494032 F F F
0.7482612050917580 0.4982943968895983 0.2517223169114511 F F F
0.8730208612155844 0.6213906043953553 0.2521461410020731 F F F
0.8735354066208353 0.4989435787029922 0.3757600109056728 F F F
0.7481136533494163 0.6228482943151342 0.3760105880151441 F F F
0.0000695658289461 0.7402173801449329 0.2575235263283200 F F F
0.6235594777749961 0.6237733407114959 0.7487760053069967 F F F
0.1270733535524671 0.7459806832817417 0.3789818056011303 F F F
0.0010543280127346 0.8727613446811566 0.3819201556147197 F F F
0.2540900577574339 0.7461574119209212 0.2526431435085378 F F F
0.3768932139099601 0.8743155775911239 0.2524792430104170 F F F
0.3769076860498618 0.7483629925709764 0.3761790774927761 F F F
0.2540491883278695 0.8740511078135121 0.3784441602758085 F F F
0.4996632129628795 0.7487453764911103 0.2514909622891359 F F F
0.6240033678676546 0.8740456224957365 0.2510178358576216 F F F
0.6231623910950781 0.7482570368106399 0.3760873480295102 F F F
0.5004849857519020 0.8739909955288397 0.3756006639201072 F F F
0.7455727601995299 0.7459427419492152 0.2525408947440423 F F F
0.4999836541646192 0.4998329319724642 0.7484698479851627 F F F
0.8725962126854543 0.7449333932043124 0.3796768148842489 F F F
0.7456723374240064 0.8732339648788998 0.3793560329861891 F F F
0.2521478954607079 0.6234220791751011 0.8739509431677828 F F F
0.1268979075167126 0.1264044444109699 0.5002378610340722 F F F
0.1266023993840230 0.0006784036113453 0.6207779043996150 F F F
0.0008920622287481 0.1267822182669366 0.6210375276052635 F F F
0.2527569174844794 0.0004390976252423 0.5007060017572100 F F F
0.3756157697001216 0.1261953945480002 0.5001030523859620 F F F
0.3767751266093447 0.0002956751959037 0.6234764826593602 F F F
0.2515705104879000 0.1266802366545871 0.6237013061521233 F F F
0.4995702426336530 0.0001240138838457 0.5005927868706341 F F F
0.6234273106520316 0.1262636573819574 0.5000814824425928 F F F
0.6228173277626831 0.0001877042837533 0.6236763550158856 F F F
0.4999138140861875 0.1263820096776826 0.6238418106494450 F F F
0.7475290312119288 0.0000590168283711 0.5008172103208844 F F F
0.8741129106844685 0.1266783783048723 0.5007528241418595 F F F
0.8733656181618171 0.9999213147697493 0.6205103673783404 F F F
0.7474121836789719 0.1262274103514313 0.6222906904945618 F F F
0.0008488291056756 0.2526033800118387 0.5004021364870377 F F F
0.1266238341458966 0.3757875685834817 0.4997729153411902 F F F
0.1264924906332229 0.2513781708026222 0.6234534799238510 F F F
0.0007617768837010 0.3767941957288745 0.6233315492830486 F F F
0.2513282721481599 0.2511937315694028 0.4998040129029921 F F F
0.3757458714590647 0.3756080400112782 0.4997498462129091 F F F
0.3760619523502112 0.2512820114936307 0.6236229890379151 F F F
0.2511318691129172 0.3761840893893103 0.6236929239152645 F F F
0.4995144636491404 0.2510727955292300 0.4997066849020805 F F F
0.6238142391434999 0.3753952372573107 0.5000736442067182 F F F
0.6233228728293050 0.2511056361868436 0.6239812416259827 F F F
0.4995341040896517 0.3754127298651117 0.6242304227534864 F F F
0.7484998022933088 0.2518224389459668 0.5001688272708715 F F F
0.8736271506821294 0.3766404717962398 0.5001457784737284 F F F
0.8745499498532255 0.2533023937511201 0.6222524188530326 F F F
0.7482212401387893 0.3759533142588082 0.6235850132647369 F F F
0.0000233628392892 0.4983561102103030 0.5001939288006585 F F F
0.1262555678388910 0.6224324013534731 0.5000225311673492 F F F
0.1266864679914575 0.4992834957334593 0.6240401557378784 F F F
0.0002468972121292 0.6212001170640904 0.6220863238536718 F F F
0.2516215477217597 0.4997726777090860 0.4996654241168750 F F F
0.3759702042016436 0.6239228372047201 0.4998839947159250 F F F
0.3756131099339926 0.4997734881648430 0.6244958695865617 F F F
0.2512630967042909 0.6230491403743207 0.6239544829409863 F F F
0.4998952259497141 0.4999077283839471 0.4999308036589912 F F F
0.6239744535253879 0.6244624504313175 0.5003381006623121 F F F
0.6238866011720858 0.4998724209670824 0.6244866210228157 F F F
0.4997797150725636 0.6242294961734740 0.6245161533203295 F F F
0.7482945603576198 0.5000953801589634 0.5002499868717419 F F F
0.8735280792167873 0.6227695415380130 0.5006067013222224 F F F
0.8738171350817029 0.4997633471577060 0.6238120977226035 F F F
0.7482721987405800 0.6238070965885827 0.6244541129105539 F F F
0.9999451174201873 0.7471257693615571 0.5011105721563466 F F F
0.1268765992748551 0.8740558406339767 0.5003219031212506 F F F
0.1268111872655637 0.7471156679336083 0.6213893413559096 F F F
0.9993777505370297 0.8731653996058472 0.6213116363153246 F F F
0.2523152810370679 0.7481385645787909 0.5001598520542710 F F F
0.3774961206645682 0.8740722379395687 0.5002788114175619 F F F
0.3766064742434456 0.7483879366627152 0.6237388038196702 F F F
0.2533540084393703 0.8738842997235562 0.6219728549732956 F F F
0.5000963612326418 0.7486350719059108 0.5003092227688613 F F F
0.6230155096392701 0.8737667572655339 0.5010257519001068 F F F
0.6238673159895892 0.7489864221242822 0.6250858544465495 F F F
0.5006450332604941 0.8739806487228012 0.6251207920419608 F F F
0.7477958293149750 0.7479298200332549 0.5009650089013992 F F F
0.8732825270193425 0.8736849070817796 0.4998899223649537 F F F
0.8731885107771394 0.7473875583127483 0.6225679533902311 F F F
0.7475963898849810 0.8741112919724673 0.6231342797761624 F F F
0.9993378053929743 0.0012957757705908 0.7385454853846096 F F F
0.3759548800705097 0.4994417113323892 0.8736137976741207 F F F
0.3762870034356891 0.6234413282090880 0.7485004014267800 F F F
0.0008204807745794 0.1304756520979695 0.8633294960621467 F F F
0.2520279771126768 0.0006719960838880 0.7446114027888769 F F F
0.3775509590802392 0.1268021994880091 0.7471738478892992 F F F
0.3786660867909655 0.0008182777522479 0.8728103649693786 F F F
0.2515008913731001 0.4995570762487961 0.7491686900763376 F F F
0.5009212829154315 0.0006742494940967 0.7485312398168062 F F F
0.6238034675402098 0.1266136287353470 0.7488572908360241 F F F
0.6237664653199072 0.0024724050825354 0.8742732437501828 F F F
0.4999780864116379 0.1265056833067237 0.8737934608650528 F F F
0.7461264204504744 0.0015027406520302 0.7451979941778670 F F F
0.8732862644180962 0.1292015860140907 0.7397293366905209 F F F
0.8735332675828078 0.0099985611577836 0.8549637347151752 F F F
0.0023814291311318 0.6204960507780303 0.8729195666469812 F F F
0.0020125708312560 0.2535363579815340 0.7453670343302073 F F F
0.1267024899466432 0.3767652646791831 0.7484972923713809 F F F
0.1269816472596904 0.4992582588120593 0.8745151801867297 F F F
0.0016815378874277 0.3783891226222029 0.8729911964157147 F F F
0.2514573054209904 0.2539286554117895 0.7460075538950605 F F F
0.3759943463622119 0.3760646221391338 0.7482223747095403 F F F
0.3775683676109775 0.2530500041729759 0.8733632694195467 F F F
0.2512544980311578 0.3752537528713615 0.8739079559827004 F F F
0.5002047506333694 0.2513179962766751 0.7484570404785994 F F F
0.6233064659248728 0.3757410603868996 0.7484179068203137 F F F
0.6238910762894858 0.2515216834412546 0.8734044860921267 F F F
0.4998823047143921 0.3757555972054561 0.8733686715888028 F F F
0.7468410941618250 0.2521320774630150 0.7461090421796807 F F F
0.8740136260066461 0.3772224311033301 0.7464385033575968 F F F
0.1269735894128395 0.6221420323483089 0.7480780288750445 F F F
0.7471873149967815 0.3777063443225749 0.8732050993876188 F F F
0.0005537411567661 0.4993864654223935 0.7478209743863822 F F F
0.8727236300639407 0.2525575791310863 0.8715281141994404 F F F
0.8720138116966351 0.7443552218363465 0.1202703095139720 F F F
0.8738422412709672 0.7460250600129837 0.8780919124192856 F F F
0.2493498937459435 0.1297535063918177 0.8712485889326296 F F F
0.1178243298624411 0.0014357263925422 0.8715028061050170 F F F
0.1143088585844713 0.1319742613645872 0.0020511703798194 F F F
0.7554788863566969 0.8796677398855209 0.8840578235365920 F F F
0.8724560065485595 0.8714658541301206 0.2588541535328511 F F F
0.1289213847172640 0.8717501513728342 0.2554314435157392 F F F
0.1161980357314817 0.0057598363638484 0.1289002474285076 F F F
0.7516416983238557 0.8789878551770407 0.1159887845562114 F F F
0.7474769139695968 0.1282967936523250 0.1273844352163908 F F F
0.9453644615906376 0.9475428619739790 0.9935260740372580 T T T
0.0013258369957985 0.8637884172811938 0.1352860945512693 F F F
0.2526753757568034 0.0021013281397573 0.0035206125832768 F F F
0.1239458822493683 0.8676402558276431 0.0029587062906955 F F F
0.8826616573849394 0.1245746409263116 0.9985547732624903 F F F
0.2507012969760339 0.8716381910341477 0.8715957063613604 F F F
0.0046787626418607 0.8643913455097144 0.8582365892978278 F F F
0.8795917895049274 0.0075395977042598 0.1403005468575958 F F F
0.1258930109686800 0.2546063886473457 0.1285573594259279 F F F
0.1291746479979705 0.7421130634126245 0.8717888812784552 F F F
0.1253186444019629 0.2560178365588835 0.8729893453428978 F F F
0.7481606977903223 0.0083659364528436 0.9988916499677014 F F F
0.1301517992285694 0.7426183448389366 0.1280634074025006 F F F
0.9981286512338774 0.1370397726777458 0.1341717130165775 F F F
0.1264149448412342 0.1292701779094668 0.2544892884110711 F F F
0.1256178223580613 0.1271165639070093 0.7433220852360545 F F F
0.7465174781207614 0.1280158843395880 0.8729503931171250 F F F
0.8733022952452058 0.2541492074268163 0.1267944310439679 F F F
