#comment
1.0
16.184 0.0 0.0 
0.0 16.184 0.0 
0.0 0.0 16.184 
Al Mg Zn 
215 20 20 
selective
Direct
0.9998557994168745 0.9997643869378975 0.4963259915075477 F F F
0.7496083730326034 0.7495021013765618 0.7491349885709520 F F F
0.6235184344694765 0.5009539838006585 0.8740759425686524 F F F
0.6246902319352997 0.6248401381444489 0.7493628776656936 F F F
0.5004629699908274 0.8748358417482198 0.8744134365134464 F F F
0.3754221073215813 0.1251652212011652 0.9992419473323914 F F F
0.3746573611748038 0.0013500989158956 0.1237993942101200 F F F
0.6228903923260387 0.7483805712520604 0.8741910597176983 F F F
0.4989656820685259 0.9998773694660416 0.9985924594453137 F F F
0.6214265754002521 0.1246491430463116 0.9978971258242550 F F F
0.6201196158625494 0.9969932280417667 0.1261375458881243 F F F
0.4996971943206348 0.1249688593537282 0.1245272282867464 F F F
0.6228369589978717 0.8738055763736503 0.7483943296285223 F F F
0.5006729710485719 0.5006039466282365 0.7489045899967063 F F F
0.2538951130978107 0.6220291658465067 0.8735366959705608 F F F
0.3770693127248010 0.5001476272224242 0.8735944229341417 F F F
0.3767990223149414 0.6241599265082561 0.7486071812137992 F F F
0.1291210536029600 0.3816001299183625 0.0017650603998143 F F F
0.5003911106068587 0.7491031697939809 0.7490897693381078 F F F
0.0015827021222150 0.3807743424375294 0.1285187086020465 F F F
0.2544994717307923 0.2536344845031454 0.0029767012895377 F F F
0.3773691177422596 0.3763643780833099 0.0001264084991449 F F F
0.3769589926462858 0.2510363957858148 0.1258475968688058 F F F
0.2516422753243774 0.3764837738604906 0.1265305140542897 F F F
0.4986999925699676 0.2506021746542366 0.9993223967386023 F F F
0.6217644099167684 0.3771722835610306 0.0000068624832281 F F F
0.6202614389812519 0.2528122970129781 0.1263971556971440 F F F
0.4988284943665205 0.3765147552623606 0.1258801593886357 F F F
0.7426806108934014 0.2548811311216335 0.0005454275304299 F F F
0.8728515372036328 0.3820058468441844 0.0009283348860957 F F F
0.2519381978123562 0.5003906386581918 0.7479292440474927 F F F
0.7462182853982624 0.3790245129409507 0.1269659389010754 F F F
0.0002056535349908 0.5023059179181609 0.0004373126140608 F F F
0.1279294249254373 0.6200782641320796 0.0008040794822240 F F F
0.1268014219616256 0.5008096876171294 0.1269705076187655 F F F
0.9999492820456061 0.6216616489326872 0.1282205938729111 F F F
0.2532074942346292 0.5006033224239833 0.0004186514356582 F F F
0.3778199764968793 0.6233188502308493 0.9999109700804016 F F F
0.3755830413490160 0.5001353480923163 0.1261050878969723 F F F
0.2516450055481351 0.6238136532911879 0.1262048969750911 F F F
0.4995927805991435 0.5000118611987832 0.9997281740571805 F F F
0.6225895391737684 0.6236046019026532 0.0000357514967133 F F F
0.6232410142431458 0.5006230100843889 0.1260378446126317 F F F
0.4998854499045550 0.6238251587943598 0.1259180521955212 F F F
0.7474071850997773 0.5014778092604555 0.9998379640623221 F F F
0.8720239454777835 0.6226238508629820 0.0006674585431314 F F F
0.8733826119159667 0.5009929174533000 0.1269207260726133 F F F
0.7477033061898759 0.6232133572436053 0.1270107965074719 F F F
0.9993327331981535 0.6228289578806738 0.8724708340887726 F F F
0.3757609612859917 0.7502097721495958 0.8732737320667321 F F F
0.3774448615584700 0.8739774707630997 0.7487565437592626 F F F
0.1269235449825301 0.5011228566234885 0.8733035224405526 F F F
0.2552670708200119 0.7451221100602632 0.9997125738429670 F F F
0.3769546943247956 0.8740668902111147 0.9979595904226265 F F F
0.3778654756419932 0.7474069629347535 0.1258526460592544 F F F
0.1264570558645540 0.6228978122071052 0.7464272072457662 F F F
0.4999509033475947 0.7489133144348140 0.9993916364743555 F F F
0.6235054315056948 0.8733401726923271 0.0004861501654680 F F F
0.6223256662888650 0.7485652577195651 0.1260326792128948 F F F
0.4979803418319946 0.8742346253963110 0.1244959988217931 F F F
0.7452000168964457 0.7445013985455166 0.0012569664520729 F F F
0.0001111168469409 0.5015404220267774 0.7474874694879798 F F F
0.8715224069589177 0.7477870895068789 0.1302701409864595 F F F
0.2545772421750275 0.7479410481285110 0.7457164293799062 F F F
0.7467078890550904 0.3792842455275919 0.8737622487110505 F F F
0.8744617782380266 0.3781269765900853 0.7472015701904207 F F F
0.1262657712172425 0.0005165100838051 0.3750872611132203 F F F
0.9999236366174153 0.1253282478774742 0.3730248558180361 F F F
0.2544465042560238 0.0013694540708905 0.2540132590655744 F F F
0.3766326480969070 0.1262215060497984 0.2505971768428341 F F F
0.3764524059935524 0.9999065048589423 0.3758783106893208 F F F
0.2515851480619324 0.1263459668829454 0.3757405380594332 F F F
0.4982668972245886 0.9994792745344865 0.2507644814392481 F F F
0.6188485228750138 0.1258708633177077 0.2539865918357309 F F F
0.6212462599481487 0.9993950136529378 0.3772533868580432 F F F
0.4982774649675026 0.1259749372052533 0.3760693844043482 F F F
0.7420322392453595 0.9971598422166246 0.2572783948091787 F F F
0.1309233999259472 0.8743025173238732 0.7441894134521295 F F F
0.8753001662026739 0.9995408656921296 0.3716337243717319 F F F
0.7478165530898033 0.1258897736391687 0.3762542593964222 F F F
0.0025167462253909 0.2540383780804438 0.2536452374422912 F F F
0.1266537066046693 0.3772005799477980 0.2521488758832869 F F F
0.1260615285844134 0.2508527699419812 0.3760955596950393 F F F
0.0000627840191009 0.3767976632732856 0.3770531104573306 F F F
0.2514178898632808 0.2514445107788615 0.2513319804252868 F F F
0.3751062763909455 0.3759266916667572 0.2509733357936585 F F F
0.3752180544731389 0.2511265610871842 0.3757167737615385 F F F
0.2507455054711915 0.3758517822233461 0.3757988296994787 F F F
0.4985178494958791 0.2516324077621001 0.2514864882696313 F F F
0.6224685441607294 0.3772644380857377 0.2516879034994217 F F F
0.6230591375490095 0.2514129484208159 0.3767965275014415 F F F
0.4995489055875348 0.3758003545488622 0.3760097164111650 F F F
0.7451344402618274 0.2542882056244951 0.2551698283731434 F F F
0.8736656342796355 0.3792157646314536 0.2538469660722189 F F F
0.8741784750709242 0.2517930714862160 0.3762166147114572 F F F
0.7485497437374742 0.3770458954654305 0.3771750507821351 F F F
0.0001760942487184 0.5009443856316288 0.2527489290449118 F F F
0.1263915575709981 0.6225447636924331 0.2524051401379264 F F F
0.1259881423011743 0.4999149168072806 0.3763208355436492 F F F
0.0000546285435282 0.6238386818478149 0.3763904297724983 F F F
0.2513771980852028 0.5001565098320401 0.2514389161921113 F F F
0.3756083769964559 0.6238202713600687 0.2508719673960473 F F F
0.3756619540341303 0.5000680671177345 0.3756963479256971 F F F
0.2510714074788848 0.6237551242885165 0.3762533252364679 F F F
0.4994236752278644 0.5003317816146278 0.2510754990892159 F F F
0.6235627636641020 0.6241869210129586 0.2511038350780634 F F F
0.6241632924742871 0.5005337035193065 0.3762795774487709 F F F
0.4998511228997216 0.6243604531214006 0.3759226173773803 F F F
0.7482341330735690 0.5011019055469453 0.2520013258393002 F F F
0.8739814193093062 0.6234540334822223 0.2521595164839532 F F F
0.8740194771531711 0.5010311364121278 0.3768051203965693 F F F
0.7489682459816868 0.6244797498437520 0.3763169573966754 F F F
0.0008730259727009 0.7463932568101302 0.2524825926441269 F F F
0.9995874782194865 0.7500881831723427 0.7462052450463172 F F F
0.1259496835059819 0.7487717578624783 0.3759323230726718 F F F
0.0009544069478235 0.8745081334342025 0.3731270608661155 F F F
0.2515967714003983 0.7464184855697437 0.2533248157578771 F F F
0.3775605271247174 0.8736060805379712 0.2517128901529061 F F F
0.3760987450180370 0.7488265051156112 0.3763793287482841 F F F
0.2517333828988810 0.8738837557015521 0.3755354822009294 F F F
0.4999877399870440 0.7484916018136636 0.2512506828027554 F F F
0.6214726423924967 0.8727568169445511 0.2515490767579380 F F F
0.6241159402745797 0.7488994408823150 0.3760988936084402 F F F
0.4998637262231153 0.8737638689665164 0.3761055382178350 F F F
0.7473573838268046 0.7479443062574003 0.2525836795035443 F F F
0.7488145776663073 0.6242546112964549 0.8738042933506280 F F F
0.8743777812315199 0.7483929928154873 0.3765471415653462 F F F
0.7485340886562347 0.8732057331499969 0.3768349249856925 F F F
0.8741550309747849 0.5012965413637247 0.8737119973345241 F F F
0.1257013732244791 0.1257744053283619 0.4975932870919160 F F F
0.1275706359659385 0.9979263447590803 0.6185840674363000 F F F
0.0004734491285696 0.1257499352824020 0.6181820610315457 F F F
0.2518935597442140 0.9995999817534886 0.4979769832590284 F F F
0.3756464224703979 0.1256535872177979 0.4995015611272176 F F F
0.3762691713212133 0.9994879671800609 0.6240203963978793 F F F
0.2529943267343246 0.1251653440099020 0.6207065859843094 F F F
0.4987490770642953 0.9999683141958778 0.5000562936456412 F F F
0.6229334303624930 0.1260394415308294 0.4990867929270314 F F F
0.6220759661566784 0.9997253057356069 0.6218502605997681 F F F
0.4990847776353912 0.1258293218999842 0.6240920917370875 F F F
0.7484729257096181 0.9997840466693692 0.4973387464056577 F F F
0.8743765054958746 0.1252295129349755 0.4971878841427784 F F F
0.8722173075070921 0.9983229468076814 0.6180992723248159 F F F
0.7463611722815516 0.1264624699212470 0.6197544069146206 F F F
0.0001211018086194 0.2512370693342229 0.4977439997028970 F F F
0.1257816389907345 0.3757305113080679 0.4996734023538060 F F F
0.1266303626706446 0.2513547869155839 0.6222792760981195 F F F
0.0002657782826446 0.3768434794006746 0.6226813295256668 F F F
0.2511592553844378 0.2512382329266995 0.4991803278461771 F F F
0.3754367188235546 0.3757006325136107 0.4998782737077205 F F F
0.3767866912447114 0.2514189096965050 0.6232573889360830 F F F
0.2513607958162189 0.3765418542220137 0.6233456425297583 F F F
0.4994322045548040 0.2511252816995492 0.4996971854980444 F F F
0.6241813411894868 0.3760567943231303 0.5002604488668027 F F F
0.6229772708036193 0.2514934400418599 0.6235131003416690 F F F
0.5001103234210663 0.3758724038260737 0.6246290699556063 F F F
0.7487084361929680 0.2516665727312431 0.4988507565999640 F F F
0.8741747000624661 0.3768442731259453 0.4998855941510055 F F F
0.8741255573087598 0.2527907017765181 0.6210363273305567 F F F
0.7491028519391469 0.3771338185879501 0.6235284688494581 F F F
0.0002152890605515 0.5006286423269727 0.5002743928829152 F F F
0.1260868036771569 0.6243552261847065 0.4995321193593736 F F F
0.1260540307263433 0.5003743212438170 0.6234446663880898 F F F
0.0001321588617253 0.6249331635416342 0.6233874204960532 F F F
0.2512164547939892 0.4997862252334899 0.4997675161199233 F F F
0.3756664606318705 0.6243937998058779 0.4998362112300135 F F F
0.3759840979325311 0.5002555927544268 0.6243940197289514 F F F
0.2513938415779553 0.6241458373373882 0.6231702614412012 F F F
0.5001188360275142 0.5000818343268237 0.5002391068295342 F F F
0.6245706565148413 0.6247188509894620 0.5003223082066093 F F F
0.6248038390881723 0.5005795277352950 0.6245937350781466 F F F
0.5004673246475798 0.6245197564902600 0.6245562853497416 F F F
0.7491877680693908 0.5012014443030394 0.5007145084278067 F F F
0.8744215058460957 0.6246392734432599 0.5004492679784528 F F F
0.8745975437427090 0.5015419609835298 0.6245676989720831 F F F
0.7493802901160764 0.6251204602883514 0.6250025180720600 F F F
0.0004309391760420 0.7487715762377950 0.4978609322495595 F F F
0.1258930099855555 0.8739170477427552 0.4969885795800427 F F F
0.1264219014103513 0.7489759510377588 0.6226301243816926 F F F
0.0002892571272136 0.8718446004907057 0.6180681508952464 F F F
0.2509598153600085 0.7491534352507280 0.4991978452645386 F F F
0.3763012570033210 0.8739643925045787 0.4995070325354449 F F F
0.3769422046444360 0.7489052051552667 0.6230597368595017 F F F
0.2527305701613595 0.8734654305836310 0.6211079988101291 F F F
0.5006223602343931 0.7490673933162332 0.5000870647508362 F F F
0.6238717482897597 0.8738790171872192 0.4999033823960915 F F F
0.6244395829463637 0.7491424398282758 0.6246431363207897 F F F
0.4998198538812078 0.8741872267077947 0.6241259779877175 F F F
0.7491020816126663 0.7488002530554200 0.5000674025177871 F F F
0.8744595067126534 0.8741702372549786 0.4970257952795512 F F F
0.8742307381153939 0.7492782067017780 0.6227798857732147 F F F
0.7487746980203417 0.8731262304328500 0.6221333717416073 F F F
0.7453953798359272 0.2540388126690634 0.7460503552295557 F F F
0.4995503389926199 0.3753874791985197 0.8737834920554989 F F F
0.8747002493561130 0.6256807960193892 0.7489055855003484 F F F
0.6219777357078697 0.2513164081973046 0.8736872079818988 F F F
0.2538727706982756 0.9966702227636199 0.7484602795788710 F F F
0.3755893527238970 0.1249593554588832 0.7486231877315288 F F F
0.3754498329241543 0.9995093776805012 0.8745585702315621 F F F
0.7493603724448069 0.5015290640494495 0.7487086818186750 F F F
0.4999804629759609 0.0000539629950418 0.7488970310778521 F F F
0.6222028489184115 0.1259638991309780 0.7475749886009916 F F F
0.6247734678671848 0.9994250600380696 0.8740522787556684 F F F
0.4989274319693980 0.1248744294555638 0.8739958756315584 F F F
0.7431415169321354 0.9981126557206226 0.7418540246911628 F F F
0.6233409845930377 0.3767528097691639 0.7491095955162101 F F F
0.4992629289611707 0.2504707861156883 0.7489902459852336 F F F
0.4996510009748342 0.6248414240029082 0.8738565062531571 F F F
0.0013682790071259 0.2531299016169264 0.7457626571926402 F F F
0.1267875461903787 0.3780084312337570 0.7467518007244232 F F F
0.2539576864709368 0.3786805663072755 0.8740666888833730 F F F
0.0015729236137526 0.3812148922490869 0.8731949098922198 F F F
0.2548390668389846 0.2528296948817923 0.7457850556620103 F F F
0.3768716862274462 0.3761979435729266 0.7488271710474630 F F F
0.3748928222589574 0.2497649871508557 0.8743684484111708 F F F
0.1312984013308969 0.2528439843765384 0.8741078854097901 F F F
0.8597928198953191 0.9954185277663964 0.8711339846478835 F F F
0.8710973457523643 0.1263775216342660 0.7453939162015430 F F F
0.0037513214110277 0.1191715277839290 0.8810159670143272 F F F
0.1303580992476163 0.1214961846410319 0.7485074489894135 F F F
0.9997156134425758 0.9947648780459594 0.7439111541237196 F F F
0.1305188995129310 0.7479879893355442 0.8716722711373177 F F F
0.8721309903715451 0.2537918418007427 0.8749028862926849 F F F
0.0025734579830052 0.8765010310825845 0.8772734317956100 F F F
0.8642131214421823 0.8732719622310418 0.0027249385103725 F F F
0.2505643429269099 0.8708766013802441 0.1268851870885136 F F F
0.0071490337484386 0.8760656327762980 0.1273255463509604 F F F
0.9996747410417415 0.7449701310770880 0.0024730365108761 F F F
0.8721471071808168 0.2534234686570533 0.1290359222108577 F F F
0.0047091667427251 0.2556394952566231 0.0039194037555924 F F F
0.7424962974458755 0.1251393688282465 0.1309479050694425 F F F
0.8701937628769620 0.9960766063491797 0.1377507752496129 F F F
0.8653020906006574 0.1201378579109108 0.9994438808302066 F F F
0.0032781884770488 0.1227238388092083 0.1283809241448945 F F F
0.1340648291504055 0.0047065357048741 0.1241827555273839 F F F
0.2529402746684525 0.1217703595516659 0.8745798376916449 F F F
0.0867518476992132 0.9981827999612571 0.9548318369684435 T T T
0.7415848421147867 0.1286684718184302 0.8701903664134359 F F F
0.8732344936503036 0.8687083117057445 0.2553617133930963 F F F
0.1289519125598038 0.8737015351248946 0.2552818980864849 F F F
0.8720061923303590 0.1286156716159688 0.2558069645506588 F F F
0.1293305037185859 0.1280259880780577 0.2540215842967095 F F F
0.0052556396366057 0.9995103653900346 0.2539387205350473 F F F
0.7438609990992425 0.8704425240305738 0.1305721017987337 F F F
0.1268128547488289 0.7432930822908750 0.1289983781493811 F F F
0.1347331292330967 0.8597428199805657 0.0018706483840900 F F F
0.2502744679944102 0.8774217852863601 0.8721613121607747 F F F
0.1286082588181235 0.2529922732005818 0.1298463850751187 F F F
0.7401117837440052 0.9976403960402127 0.0038700384326128 F F F
0.2554979847792346 0.1293207424876834 0.1279980472881666 F F F
0.2542836989719421 0.9989025515688003 0.9952690201853229 F F F
0.1385735619852838 0.1366501507063301 0.0041270704165445 F F F
0.8718269277900833 0.8717903806635698 0.7456628907954300 F F F
0.8731010093652694 0.7488644384220634 0.8740045516823449 F F F
0.7420794011698103 0.8688532378233883 0.8730095426807399 F F F
