#comment
1.0
16.184 0.0 0.0 
0.0 16.184 0.0 
0.0 0.0 16.184 
Al Mg Zn 
220 25 10 
selective
Direct
0.0001443001195567 0.0006882979819781 0.5017904710194760 F F F
0.7459069916790916 0.7462666879767871 0.7456885574901513 F F F
0.4996199719091350 0.8744448063919783 0.8733001283595775 F F F
0.6224704172738025 0.7482028866016575 0.8729867724975319 F F F
0.6220619906487199 0.8748846299175979 0.7473680340014054 F F F
0.3786369270931395 0.1280963775746081 0.9997622610514151 F F F
0.3787771555210602 0.0003918425538128 0.1281162753784574 F F F
0.2573374139459723 0.1299774633834939 0.1301920959556047 F F F
0.4977291128265329 0.0004289048361739 0.9996733826093663 F F F
0.6211199667833429 0.1260574336323551 0.9975552907920142 F F F
0.6177165673068531 0.0004043166059581 0.1262457561850064 F F F
0.5002391118467380 0.1268018414140929 0.1257687423204336 F F F
0.4997716023289578 0.7486685726976414 0.7482774029718364 F F F
0.3767088240389741 0.7488618169201371 0.8729228271437406 F F F
0.3773853082559090 0.8743062773493478 0.7464780799384099 F F F
0.2535874498871344 0.7467418229949713 0.7450091082872139 F F F
0.9994197409903663 0.2612606219426990 0.9984003180230472 F F F
0.1275217373469245 0.3770413763751462 0.9987238863473406 F F F
0.1267129308479133 0.8751919002569439 0.7409655842991494 F F F
0.9992448002788091 0.3808075170530632 0.1277600346693935 F F F
0.2574156575004806 0.2561655637738084 0.0003894389833741 F F F
0.3779920236508265 0.3771731245459228 0.9994976601528501 F F F
0.3783433202469284 0.2528492805387468 0.1268054727461493 F F F
0.2539866910130409 0.3783708550027569 0.1267087558963420 F F F
0.5001527806787339 0.2517589545729844 0.9993609996565154 F F F
0.6229074411582520 0.3763083047291063 0.9996393923072563 F F F
0.6218801629250704 0.2525772926530019 0.1260420048690060 F F F
0.5001445922466977 0.3763640090754434 0.1261061638012242 F F F
0.7446930845260822 0.2527591214234765 0.9981553338561551 F F F
0.8726836164038039 0.3801368074016805 0.9992411391925510 F F F
0.0001442243346762 0.7414596497219823 0.7394360951821358 F F F
0.7464985444083507 0.3775591371517775 0.1262394737944953 F F F
0.0007018461864832 0.4975397818594536 0.9994725682703099 F F F
0.1266124490052343 0.6183025041032922 0.9996727647720116 F F F
0.1267705964124539 0.4986051154523722 0.1259940267843996 F F F
0.9996613984522281 0.6172628168426348 0.1265938627240783 F F F
0.2527517621606472 0.4984608199358384 0.9992323723213730 F F F
0.3778605330581778 0.6222417167629635 0.9995162905269230 F F F
0.3772197113983654 0.4997930551766375 0.1260440309975786 F F F
0.2539312038393197 0.6203203808811069 0.1261311345068974 F F F
0.5004165686450611 0.4997822347130442 0.9996127536521890 F F F
0.6223343536241766 0.6228985193128043 0.9994531020922087 F F F
0.6232535714518198 0.4998950334678500 0.1260118161162703 F F F
0.4996506980584958 0.6241458567217041 0.1261024213454167 F F F
0.7466663453626967 0.4993681509753973 0.0000580287529686 F F F
0.8736374620291495 0.6170842709296740 0.9997019054190166 F F F
0.8729512373455286 0.4994447956250381 0.1267437624678902 F F F
0.7464759420299723 0.6219119975434185 0.1263187380182839 F F F
0.7462196661893065 0.6206450985980776 0.8734012925372736 F F F
0.8736137781204580 0.4986464106735921 0.8731082116941471 F F F
0.8732790585859186 0.6203369823452828 0.7459791061899996 F F F
0.7479821995145521 0.4990998218111490 0.7481002643597943 F F F
0.2571804850553148 0.7440543967682512 0.9996189136095901 F F F
0.3776898660179239 0.8732205084791770 0.0009110178588735 F F F
0.3765103458114540 0.7483906916969726 0.1264342162152130 F F F
0.4995855313968187 0.6240759462132150 0.8736009970988250 F F F
0.4989376034248295 0.7482195023605633 0.9995294618536101 F F F
0.6188649331614574 0.8749490661776743 0.9986545529327971 F F F
0.6213141117762642 0.7476013661052331 0.1257791987630752 F F F
0.4994735975173326 0.8735027470966484 0.1261274394804324 F F F
0.7435608287189872 0.7450838677962492 0.9989973793192671 F F F
0.6229078150925993 0.4992419995132884 0.8735933763000382 F F F
0.6230303208738066 0.6229392932986934 0.7487149144995230 F F F
0.4999791688245411 0.4993803791541707 0.7488945796168307 F F F
0.2537797902949580 0.6208125686668823 0.8730938163524720 F F F
0.3767402359950489 0.4988969451686751 0.8734134990774007 F F F
0.1268886518962503 0.0025771036445623 0.3785698474581068 F F F
0.0008427236577859 0.1265369017262403 0.3781238176047491 F F F
0.2561515623867416 0.0022577832106426 0.2546956253047458 F F F
0.3785795622354183 0.1265714300249120 0.2527529266215301 F F F
0.3771356650298966 0.0004976972724086 0.3774747585354526 F F F
0.2521976415353678 0.1268851628083518 0.3775608619152032 F F F
0.4993224502912815 0.9998019407998242 0.2526536719845197 F F F
0.6211631735877828 0.1264974359089099 0.2535096594885914 F F F
0.6221329743831530 0.0003703863009236 0.3787336214233582 F F F
0.4998951429240036 0.1264320808532884 0.3771606769469978 F F F
0.7437882140541198 0.0012744845877934 0.2582573051888386 F F F
0.8714347233864387 0.1287555713332703 0.2609132300122979 F F F
0.8738900239928707 0.0018952473982144 0.3811888478052410 F F F
0.7471773064098496 0.1268193473322446 0.3796276198500584 F F F
0.9982561379825318 0.2558664736187623 0.2584985684797567 F F F
0.1265561018899409 0.3796011519154285 0.2551853291329327 F F F
0.1264314297493683 0.2514981701233706 0.3767056207824942 F F F
0.9997952570366687 0.3771784055174652 0.3782956061625404 F F F
0.2546185634587325 0.2532651724452072 0.2548162185772736 F F F
0.3769346352096724 0.3762986412334465 0.2521187323615436 F F F
0.3766495542943105 0.2510402363257321 0.3769863589224852 F F F
0.2518385089144935 0.3761176994473552 0.3772544928354958 F F F
0.4998085614006495 0.2518784115092851 0.2519533652291937 F F F
0.6231719713685092 0.3765079900411495 0.2518997312173577 F F F
0.6234627285786908 0.2513317616130241 0.3769380130767106 F F F
0.5000459799452279 0.3756298737821621 0.3760882387487935 F F F
0.7460027626675466 0.2533269683141567 0.2546539146716452 F F F
0.8727077606758480 0.3781968959314398 0.2536923945096134 F F F
0.8728358546898991 0.2528735317903356 0.3794152745876043 F F F
0.7481714212101318 0.3763088461364637 0.3768194245843542 F F F
0.9994925892274319 0.4995743820130102 0.2534866371322089 F F F
0.1266380868458961 0.6200292451927516 0.2541537267314387 F F F
0.1263584023602546 0.4995033307627204 0.3780375702184459 F F F
0.9999314815638159 0.6220716192909697 0.3784545899385600 F F F
0.2522685470950004 0.4996143200485586 0.2523857300310051 F F F
0.3768501067344845 0.6236145740700243 0.2516445013785535 F F F
0.3764720954675309 0.4998263209734582 0.3758133402071744 F F F
0.2517986614725572 0.6227427069177111 0.3770518621006896 F F F
0.4999938148423141 0.4999976648414718 0.2512947828228718 F F F
0.6230208305955875 0.6235039725353266 0.2515250147886068 F F F
0.6238636277948296 0.4998333790054841 0.3760769089960922 F F F
0.4999586522807081 0.6240533540825648 0.3757014625262109 F F F
0.7477332906219477 0.4998804893673248 0.2517956346557392 F F F
0.8731142859615251 0.6219000187492876 0.2531000207693118 F F F
0.8732838316581190 0.4996842583275847 0.3767389805457222 F F F
0.7483496604935236 0.6232516463006917 0.3767723081459719 F F F
0.9997877193600307 0.7429047930863908 0.2574166919592303 F F F
0.3766017112710526 0.6232541044035697 0.7483713201935243 F F F
0.1268314478648244 0.7466677730723631 0.3786524766448913 F F F
0.0009431598875529 0.8741557893092086 0.3820439306280958 F F F
0.2547456846835643 0.7459560284424206 0.2543130907314715 F F F
0.3765531902829120 0.8740536420716253 0.2522674591227913 F F F
0.3768131936308096 0.7487394878123662 0.3766618611946906 F F F
0.2537046167598476 0.8744616896612170 0.3791671474846287 F F F
0.4991525425591168 0.7487045030203721 0.2517367859908847 F F F
0.6215378818668181 0.8737041639115930 0.2533079360458035 F F F
0.6231876729650913 0.7482901870400311 0.3767019815187108 F F F
0.4998520295863942 0.8738708435815498 0.3766609722256558 F F F
0.7455578994852434 0.7460942059179383 0.2539555024894346 F F F
0.2518021443808928 0.4985054094154381 0.7484802751817988 F F F
0.8732673226588037 0.7460511426161361 0.3800846531493126 F F F
0.7460837440951502 0.8735912107415646 0.3799092242561542 F F F
0.0001468646513093 0.6177369212402651 0.8730708947396109 F F F
0.1260219671796323 0.1267300472783485 0.5000875983712043 F F F
0.1259681583854479 0.0009487523687128 0.6204548532403760 F F F
0.0007239161264649 0.1265426674330160 0.6219768186489911 F F F
0.2518653951217004 0.0009142999006669 0.5003633883329190 F F F
0.3758719630878107 0.1261271794924142 0.5009065264166671 F F F
0.3758064310567120 0.0003849883923536 0.6234773220599612 F F F
0.2507962536661422 0.1268383211102765 0.6234251846164501 F F F
0.4996880400330705 0.0001950728839281 0.5012112942826055 F F F
0.6236091488660702 0.1262329583235098 0.5012275841855407 F F F
0.6231691374653371 0.0002312136985080 0.6237438527147400 F F F
0.4997861883253443 0.1260612841056284 0.6243241167203022 F F F
0.7486821111370244 0.9999070099471903 0.5019725777054629 F F F
0.8746747205142584 0.1260688256398247 0.5013368013020076 F F F
0.8755990940857988 0.9997411967797002 0.6235007736011068 F F F
0.7486814953182719 0.1258184108016316 0.6227621437313010 F F F
0.0004429695837937 0.2514206037096963 0.5003651815728135 F F F
0.1264818146553640 0.3750863661981578 0.5005521870947469 F F F
0.1262295449279463 0.2503123753674857 0.6236372967735064 F F F
0.0005843092337538 0.3765673166141844 0.6225211989681175 F F F
0.2515346330998065 0.2511420796248265 0.5001305668433157 F F F
0.3760688956115885 0.3758074018744001 0.5003937012687212 F F F
0.3762376143192025 0.2511013996621495 0.6237428369678915 F F F
0.2512996991105091 0.3754913762136630 0.6239757024238217 F F F
0.4998628327504799 0.2511976746637424 0.5006253515182639 F F F
0.6238864360294626 0.3755903051613572 0.5006181588408681 F F F
0.6235191798793587 0.2507496849124654 0.6244002471273801 F F F
0.4997664857726468 0.3756140570693851 0.6245752421512540 F F F
0.7482345399284978 0.2517312677374767 0.5009702994023801 F F F
0.8735209179964980 0.3761981298870688 0.5007912848046683 F F F
0.8742202279252781 0.2518996622490182 0.6231253725572604 F F F
0.7483016064423311 0.3757251646354968 0.6242973405704501 F F F
0.9999591806786109 0.4990632537031269 0.5004239547705116 F F F
0.1263416317516703 0.6233479314726662 0.5007544082587044 F F F
0.1267892963374564 0.4986860476935669 0.6233467433300113 F F F
0.0002529452592806 0.6210925158530395 0.6213518999115314 F F F
0.2517122417966437 0.4995792019710188 0.5003355620721013 F F F
0.3761236090424785 0.6238952709522020 0.5000663557176315 F F F
0.3758917720690554 0.4997038412064730 0.6246463677834657 F F F
0.2515985303186229 0.6231313305877623 0.6235934038046420 F F F
0.5000780385089888 0.4999941905785795 0.5001046818495100 F F F
0.6239874213275257 0.6242251875649262 0.5004508941899898 F F F
0.6239642999348654 0.4996645520048104 0.6244637955025012 F F F
0.4999190486818028 0.6239544109623296 0.6246283337786914 F F F
0.7485764978049206 0.4998987552985062 0.5003737959887155 F F F
0.8735994823534959 0.6232532537189257 0.5009032759700941 F F F
0.8736296758818534 0.4991209082867358 0.6235548906011191 F F F
0.7480890882305861 0.6233095031394283 0.6237758849921253 F F F
0.0002418942702157 0.7482747990840727 0.5021103470961255 F F F
0.1262668351636393 0.8746086372445763 0.5000653823978425 F F F
0.1269910545141027 0.7487445745049055 0.6221191040005150 F F F
0.9989061531595993 0.8746202914372314 0.6234028248180851 F F F
0.2520655690361729 0.7483612924152594 0.5002369906599209 F F F
0.3766455760161137 0.8742527988217398 0.5006056799126156 F F F
0.3766453337866458 0.7485544473783529 0.6235147672349662 F F F
0.2522958030555890 0.8738513232775326 0.6218249303364335 F F F
0.5000337166366704 0.7484839208126143 0.5003262810249323 F F F
0.6231505668328148 0.8740110366692446 0.5011687144341626 F F F
0.6231722084983802 0.7490178330480857 0.6243125275230507 F F F
0.4996499643808633 0.8741002137966688 0.6243475289664990 F F F
0.7477200761695117 0.7482591109933440 0.5012031078684106 F F F
0.8738169001058227 0.8741380833354715 0.5006596689467229 F F F
0.8731041390728868 0.7478149064551368 0.6225125995766111 F F F
0.7478967724003875 0.8742532074108960 0.6236616341344215 F F F
0.0049257886083561 0.0041543715263035 0.7448546076121870 F F F
0.1269567180803887 0.4990628902351226 0.8734868696326863 F F F
0.1270259686677668 0.6198100750282486 0.7456064353798235 F F F
0.0003502042606225 0.4984744822430591 0.7469777425670637 F F F
0.2495926103527281 0.0009692734999966 0.7425682205917773 F F F
0.3770085054931051 0.1264725067641047 0.7469341769122537 F F F
0.3786616191947296 0.0008863148045453 0.8720801101200818 F F F
0.7467040981794468 0.3776765976747503 0.8731156734088606 F F F
0.5001795317904046 0.0008357757013985 0.7478331492291087 F F F
0.6238001564684380 0.1264754804779387 0.7485467105414644 F F F
0.6219459192077585 0.0022554017339143 0.8728175357914355 F F F
0.4997966384597425 0.1265502297269619 0.8735513746762429 F F F
0.7473247603870928 0.0025021273972974 0.7450739796353518 F F F
0.8743309597972371 0.1270577741900373 0.7434223634554741 F F F
0.8781445693582687 0.0018531003949285 0.8574779561623477 F F F
0.8739642318713017 0.3768986736562852 0.7467215602236885 F F F
0.0010667661138946 0.2543002027780699 0.7436333361594583 F F F
0.1266127499233348 0.3765956641486041 0.7474553956987645 F F F
0.7472004145326451 0.2511323885074806 0.7465056904974243 F F F
0.0016224883582162 0.3785781312676105 0.8719003673295107 F F F
0.2514283977347698 0.2526804541017629 0.7460045402571076 F F F
0.3761991187964464 0.3754440108503456 0.7484832948459221 F F F
0.3770193533409036 0.2514303640182668 0.8726657268164121 F F F
0.2521911954899630 0.3757699597706159 0.8730378917863432 F F F
0.5001290821605329 0.2507763176555273 0.7483376494777999 F F F
0.6233407024008777 0.3755271755561524 0.7487451982107658 F F F
0.6239799017987117 0.2505546000079533 0.8730179862865398 F F F
0.5001408626041927 0.3749492650353082 0.8734061176903244 F F F
0.7482824162458408 0.8766800112892794 0.8725706454191777 F F F
0.1269090242699427 0.8645665826872796 0.0043332969251821 F F F
0.8719752767166602 0.2524672499612571 0.8724936047917760 F F F
0.2461461703541486 0.1244643514837679 0.8689700986224793 F F F
0.8728433521024535 0.7424216386570827 0.8737944310889275 F F F
0.0602770260350666 0.0057422050329463 0.9265243830200947 T T T
0.1263526001939556 0.1427803766196492 0.0008281708137670 F F F
0.1276674005497509 0.0048042252093053 0.1299277224976614 F F F
0.8733888131703909 0.8727460289891785 0.2588977086510964 F F F
0.1285246882025289 0.8738499698871467 0.2557771852381636 F F F
0.0004705839244592 0.1277527811939452 0.1349157816685077 F F F
0.2526766390835754 0.0019246514192414 0.0024350349424177 F F F
0.7448113192631607 0.8762321851658716 0.1237269772688989 F F F
0.8747807710621724 0.7450823167349179 0.1228169943556861 F F F
0.8818421578110044 0.8871818108441849 0.9949141051070951 F F F
0.2481404026654393 0.8785925788170432 0.8699273046628584 F F F
0.9998253200785314 0.8752718675446943 0.1292148929951860 F F F
0.1267212705679953 0.7415292261327733 0.1282328794091917 F F F
0.8843714938888768 0.1148270861689977 0.9907239678242858 F F F
0.8740921677952650 0.0035897452905506 0.1342339862436523 F F F
0.8732466150038497 0.2531004166679229 0.1254970517228883 F F F
0.1269209814413333 0.2564581985337897 0.1328112725499553 F F F
0.1262186250366005 0.7422991635807574 0.8711424550472484 F F F
0.9969038413248952 0.8646629479919236 0.8586952025947057 F F F
0.7450961561195818 0.1248931135286865 0.1254344647711744 F F F
0.9997964441868312 0.7400689355252720 0.9986541321513678 F F F
0.2556922608088881 0.8730795884700308 0.1292086134907915 F F F
0.7420875287786434 0.0020875180342860 0.9976487455718021 F F F
0.0010916395041957 0.0006903890753798 0.2608143450300421 F F F
0.1292390902107564 0.1282536925738731 0.2573447119483597 F F F
0.1277753340166152 0.2572075839861581 0.8688236517555123 F F F
0.1243715403433902 0.1250605100855190 0.7455646194658779 F F F
0.8697181539343267 0.8715714658164211 0.7413451592669316 F F F
0.0017620524247733 0.1428246224799819 0.8622430513978303 F F F
0.7476755350284896 0.1248395123050783 0.8726423959641149 F F F
