#comment
1.0
16.184 0.0 0.0 
0.0 16.184 0.0 
0.0 0.0 16.184 
Al Zn 
241 14 
selective
Direct
0.9999888139452278 0.0001280522674771 0.4993034567054801 F F F
0.1306992337077399 0.1247109122673405 0.0020012018420668 F F F
0.8757688165211859 0.7516882511069208 0.8756094959514068 F F F
0.8760417962830995 0.8747139715353894 0.7503984839721073 F F F
0.7500266109829928 0.7499223286374994 0.7500641928775473 F F F
0.3749560130191827 0.1248053452904386 0.0000835765277927 F F F
0.3745258264499297 0.9994776353921061 0.1247727065958600 F F F
0.2502664945803853 0.1240930709986294 0.1258546167991185 F F F
0.5002277825073304 0.9999337036547706 0.0000238443588831 F F F
0.6260617690964844 0.1248023137676993 0.0000198366553885 F F F
0.6258212015110365 0.0003220587628264 0.1245345413982925 F F F
0.4999973522760479 0.1250423523854000 0.1249390895825187 F F F
0.5000884243765120 0.8748562621242364 0.8749863705274078 F F F
0.8682288062699961 0.1245411096232355 0.0027469037738343 F F F
0.6249354322844646 0.7497468920213427 0.8750148798713083 F F F
0.6250359906847057 0.8746598922511468 0.7502004361114898 F F F
0.9995096140949599 0.2444933587670920 0.9983661083727216 F F F
0.1245238700339492 0.3740446693308789 0.9998695435832285 F F F
0.1235811341414628 0.2492269563194446 0.1251723342133798 F F F
0.9998575861302627 0.3736363480195532 0.1240730062907107 F F F
0.2505134575212913 0.2506756516570054 0.0002198725613092 F F F
0.3750776817183173 0.3751291534829508 0.9996670870907610 F F F
0.3749412923929755 0.2498394093154493 0.1251774486535326 F F F
0.2496780232635006 0.3746158558801222 0.1252278483597034 F F F
0.5002393109260714 0.2499569813373788 0.9999517761728652 F F F
0.6248466532522992 0.3751045120765880 0.9998216137456872 F F F
0.6253225761851019 0.2497197223768327 0.1250736552590742 F F F
0.5000348590205441 0.3748636025814903 0.1251455428137846 F F F
0.7495592209474277 0.2504809492371776 0.0005617756738776 F F F
0.8753859057320657 0.3741290136154114 0.0000392450887305 F F F
0.8754866677179842 0.2486591580363094 0.1256100115738828 F F F
0.7500173141648031 0.3746450065953338 0.1253396868647665 F F F
0.0000550543729699 0.5002140210157429 0.9998618945166518 F F F
0.1248724621846693 0.6260090974519047 0.9999998811275738 F F F
0.1249477285010055 0.4999305416372702 0.1249714551436407 F F F
0.0002545488920308 0.6259335099861123 0.1248165562098662 F F F
0.2497409392295940 0.4999468935230939 0.9997252832681573 F F F
0.3747399610584310 0.6254822492968108 0.9999854048537051 F F F
0.3749872237444148 0.5000083024794597 0.1251672508124277 F F F
0.2497917523816552 0.6256012420596601 0.1250021232480771 F F F
0.4999744097615931 0.5002176803988618 0.9998707365574893 F F F
0.6250519923230023 0.6253266333306365 0.9999323243604606 F F F
0.6249073645965179 0.4999111904289447 0.1251562867482024 F F F
0.4999740081548986 0.6251341091839171 0.1252368578630436 F F F
0.7501995682667882 0.4997349817137467 0.9997995695215933 F F F
0.8752945544635372 0.6257761438011777 0.9998939090377326 F F F
0.8750822034888205 0.4999284147452445 0.1249327852023681 F F F
0.7501741144613798 0.6254310126251700 0.1250022086594651 F F F
0.0001070197175653 0.7528660981694507 0.0001637510472020 F F F
0.1236364899517761 0.8791854988840878 0.0012921362231284 F F F
0.1250508765236026 0.7517997901046610 0.1252511162690242 F F F
0.9997786359594770 0.8799379256250137 0.1228179489136801 F F F
0.2485819465592005 0.7517437050498802 0.0005725352932855 F F F
0.3743649004626772 0.8751375029708963 0.0002092468847083 F F F
0.3744521902669971 0.7502790179317397 0.1249839615170519 F F F
0.5000295712159465 0.7497270551729232 0.7498888023264734 F F F
0.4999803659987637 0.7500766590587471 0.0000059355696849 F F F
0.6253882140418742 0.8752912614651377 0.0001520651404225 F F F
0.6253302852591988 0.7502793532702517 0.1249219510053499 F F F
0.5002214082958911 0.8747747617933599 0.1251455915374546 F F F
0.7511711401460424 0.7509103125764890 0.0001384873919643 F F F
0.2506527239691984 0.8743013282645312 0.8751477532758233 F F F
0.8755973465321435 0.7511162812520998 0.1246667841294872 F F F
0.7508458601565691 0.8754424507611070 0.1247446212133428 F F F
0.3750011576190681 0.7497381985492285 0.8750584418174486 F F F
0.1237145309700585 0.1235836630877547 0.2478069326041498 F F F
0.1243969285397996 0.9996344704815865 0.3735252168972317 F F F
0.9997626818435668 0.1245785191879378 0.3733031652160498 F F F
0.2483842218143775 0.9985873824554858 0.2485172217917995 F F F
0.3749435351086000 0.1247789497755413 0.2502213136623268 F F F
0.3745688827947702 0.9997760926202935 0.3745644722098869 F F F
0.2492952158449149 0.1247366873342225 0.3743100175163709 F F F
0.5000672499865919 0.9998274784984824 0.2498122489781157 F F F
0.6251287216822545 0.1250933454079399 0.2499032647041953 F F F
0.6252580125268911 0.9999413086299880 0.3745102792128426 F F F
0.5000139713507548 0.1253097821391298 0.3751418624596931 F F F
0.7514381719439419 0.0011714960585244 0.2485707716634830 F F F
0.3751161900336499 0.8746587607070904 0.7500228327898635 F F F
0.8754675310921870 0.0005579645709212 0.3737675195403855 F F F
0.7502122920273894 0.1251375211489347 0.3749289978015326 F F F
0.9993540047059136 0.2483009031004368 0.2491203007143274 F F F
0.1247560849693022 0.3746284978913643 0.2501584642021492 F F F
0.1248613541036427 0.2496756578256775 0.3746030118504724 F F F
0.0000158831812449 0.3744146926370453 0.3748506317633467 F F F
0.2495106376656359 0.2497690465808662 0.2501125169960628 F F F
0.3746952693143819 0.3747093536074452 0.2501578100953934 F F F
0.3748615718445867 0.2501163121504906 0.3750482910137466 F F F
0.2500383892289614 0.3748413635467319 0.3750262788408660 F F F
0.4999851090807820 0.2502330610116278 0.2502746860364606 F F F
0.6250887179638965 0.3747914785834993 0.2501107085101020 F F F
0.6249490975436942 0.2504635640849837 0.3750040962123263 F F F
0.4999254142542421 0.3750098982384878 0.3749934937114240 F F F
0.7502912891489114 0.2494559390721623 0.2499531028422547 F F F
0.8750362759558437 0.3747696016274097 0.2500923035646225 F F F
0.8748356393578104 0.2497869035300541 0.3747714837649894 F F F
0.7497880192960472 0.3749226613004357 0.3749833678999175 F F F
0.0000558241065765 0.4999510224008341 0.2498428719739706 F F F
0.1250325633676376 0.6256156566222324 0.2501075999591656 F F F
0.1251238697751900 0.5000300941830987 0.3750638333436628 F F F
0.0001055481132008 0.6255738064496613 0.3747519465101737 F F F
0.2500000700398272 0.5000522742382442 0.2502068071437961 F F F
0.3749408879785153 0.6252387242486429 0.2500670890032677 F F F
0.3748421576303235 0.4999703641135540 0.3748939060816479 F F F
0.2501037537457985 0.6252143716193864 0.3749504738142693 F F F
0.4999749256764621 0.4998070775370955 0.2502131115321391 F F F
0.6250078217545731 0.6251586370829089 0.2501051089133262 F F F
0.6251110178757294 0.4998990783128123 0.3749735692453314 F F F
0.5000449193742049 0.6250887215587595 0.3749716849620287 F F F
0.7499204153166684 0.5000086602808963 0.2501909248894300 F F F
0.8752553296491209 0.6256742760944817 0.2500032937892661 F F F
0.8748781540118935 0.4999772930591010 0.3750725047452264 F F F
0.7498183459691264 0.6253852376530026 0.3749211606517805 F F F
0.0005492315990111 0.7520716721997023 0.2486086455691400 F F F
0.2499692091717503 0.7497848834526093 0.7499867448942057 F F F
0.1249983899938965 0.7502402575371555 0.3745006303262260 F F F
0.0002598749317080 0.8755730472027070 0.3738252477344548 F F F
0.2499675795873360 0.7501574887252189 0.2501784992283381 F F F
0.3746181895957857 0.8747110692854961 0.2498034898050377 F F F
0.3749305845480684 0.7498493504285844 0.3749619358768240 F F F
0.2495377915150520 0.8746796932851174 0.3746601012686654 F F F
0.5000580036443056 0.7498857381123704 0.2501272845362055 F F F
0.6255140363199997 0.8752345540862966 0.2496323399217999 F F F
0.6251038699549886 0.7500419831588497 0.3749463356558348 F F F
0.5000393057499033 0.8744916937078139 0.3749266176422434 F F F
0.7499971037421860 0.7501016189039610 0.2501108799763214 F F F
0.8755386011244587 0.8762549903075657 0.2492250916440094 F F F
0.8752573751048730 0.7503262757150202 0.3745523909023400 F F F
0.7503078609495263 0.8752059144638324 0.3745016802593113 F F F
0.7497336005903388 0.8739672464113976 0.8759365550801376 F F F
0.1247210880528656 0.1250260585407152 0.4993889519754535 F F F
0.1246348548412066 0.0000755324085525 0.6251841253629024 F F F
0.0000059373003476 0.1249155374988841 0.6253188022709315 F F F
0.2495421522423507 0.0001165305327965 0.4997468256189380 F F F
0.3747894187916891 0.1252696588973914 0.4999213806981495 F F F
0.3751578609304998 0.0001188012934190 0.6246508558347966 F F F
0.2489961307653350 0.1253320889684975 0.6257406620728844 F F F
0.4999861748844616 0.9999383890298595 0.4996241077203943 F F F
0.6251046352524746 0.1253489132233196 0.4999939239245252 F F F
0.6248904142140729 0.0000097398087691 0.6248675548955623 F F F
0.5000797549461566 0.1254291896244659 0.6251821648777368 F F F
0.7503226378746699 0.0000459444479885 0.4999705815201027 F F F
0.8751055018283532 0.1251262273983263 0.4997946391688192 F F F
0.8753352897730938 0.9999650763402619 0.6252892155972075 F F F
0.7509641499428344 0.1251866145766412 0.6259225831444410 F F F
0.0000274439694677 0.2497925598801660 0.4997276715593319 F F F
0.1250869553789795 0.3747459719742510 0.4999898242126892 F F F
0.1248802144061351 0.2499778558647430 0.6251067364361179 F F F
0.0001673916722822 0.3740111144670556 0.6258157030474507 F F F
0.2499445067615919 0.2499941727616067 0.4998724209042841 F F F
0.3748107067177701 0.3747534610581689 0.4999741084608514 F F F
0.3747522619050980 0.2500547052715191 0.6250537408760825 F F F
0.2500318378648908 0.3749514422379840 0.6250338525214908 F F F
0.5000310486560782 0.2503075498040306 0.5000153154733461 F F F
0.6249681239761528 0.3748526379793586 0.5000913520170580 F F F
0.6251534244781245 0.2501511551634248 0.6251206276211012 F F F
0.4999871230623165 0.3749255424495547 0.6250250235240380 F F F
0.7499242224259927 0.2502346320470755 0.5001011437027482 F F F
0.8750143742806362 0.3748750709349271 0.5000191102052335 F F F
0.8751134039744344 0.2499983971089036 0.6252154835183306 F F F
0.7498960338176095 0.3749861762907903 0.6250587778327965 F F F
0.0000482100460490 0.4998918804024727 0.5000670232213965 F F F
0.1250890632517288 0.6250717950243320 0.4998528474574043 F F F
0.1250335381714155 0.4999271032656322 0.6251246019238681 F F F
0.0000079579861863 0.6252070165900003 0.6252132623909732 F F F
0.2500494073329554 0.4998958923803506 0.4999645011932539 F F F
0.3749585930971414 0.6250610740089415 0.5000264505453449 F F F
0.3747614249328966 0.4997400814058330 0.6253574057602254 F F F
0.2500861299379880 0.6250175023713250 0.6249938787335559 F F F
0.5000523256595295 0.5000561609754666 0.4998516064755588 F F F
0.6251114491613348 0.6251471420965385 0.4999562005208609 F F F
0.6251152820323794 0.4998984946724369 0.6252160315417299 F F F
0.5000287163704130 0.6252327314989810 0.6250288757141620 F F F
0.7498788647548069 0.4998419380770500 0.4999739391528167 F F F
0.8748354255035153 0.6250955442403854 0.4999646312924801 F F F
0.8750509939130416 0.4998073175941725 0.6251531729422722 F F F
0.7497905447739164 0.6250780263195707 0.6250116207316284 F F F
0.0000616814870049 0.7502538045058716 0.4998652191648620 F F F
0.1249802196822482 0.8749025880167179 0.4998767176356510 F F F
0.1250031374171474 0.7498113573131036 0.6250045128967638 F F F
0.0000587200635765 0.8757247255072490 0.6255018794112438 F F F
0.2500764793389261 0.7496726953317279 0.4998106309869376 F F F
0.3749819847200228 0.8745810278656986 0.4998017822003565 F F F
0.3749033140230475 0.7498522063636509 0.6250629261881482 F F F
0.2498968887135428 0.8744706197936487 0.6250488851907940 F F F
0.5000122708253427 0.7497615440529944 0.5000887484525386 F F F
0.6249722201638793 0.8746421542930664 0.4999361094651932 F F F
0.6251024034945064 0.7499597608552693 0.6251242522994565 F F F
0.5001216906260846 0.8747083009868462 0.6250486187102979 F F F
0.7498895799392766 0.7499378621283830 0.4998077330488038 F F F
0.8751113668069632 0.8750436380948136 0.4997627773377537 F F F
0.8750492017640172 0.7499627798295513 0.6250231664250062 F F F
0.7500470144918886 0.8745120326081292 0.6251440873318921 F F F
0.9996986125011619 0.0019505979575846 0.7544193204425705 F F F
0.1229963669593732 0.1250545782146354 0.7522128642842405 F F F
0.1306558545872798 0.9988765000671594 0.8736172610322569 F F F
0.1243332986554452 0.7515531944758171 0.8754382102505729 F F F
0.2509435410876208 0.9998412630457906 0.7489355663234951 F F F
0.3753169227272488 0.1253477135533059 0.7498180856878436 F F F
0.3750432619252830 0.9999566816723602 0.8751973307686707 F F F
0.2511110473019281 0.1254830539842984 0.8747900468830910 F F F
0.5003118710569789 0.9998666666248353 0.7502328198416367 F F F
0.6255203656914151 0.1251690213410420 0.7504374959302712 F F F
0.6259601379059696 0.0001747546924614 0.8755152793251255 F F F
0.5001487324413112 0.1252327542187034 0.8749385064149542 F F F
0.7493784511828733 0.9998368390589856 0.7493472985145918 F F F
0.8765362967913661 0.1247619385971429 0.7523167722554155 F F F
0.8688534499787087 0.9986150402714158 0.8748327733363501 F F F
0.1241549273912314 0.8746527727851002 0.7500758663270843 F F F
0.9998171088850831 0.2474223218967687 0.7526991905325219 F F F
0.1249260286689712 0.3745411413968088 0.7501395682821830 F F F
0.1229697098268824 0.2474098263305018 0.8754783111545116 F F F
0.9999910098764023 0.3739858277383722 0.8752706128184243 F F F
0.2500049592806038 0.2501544374343065 0.7499433102611822 F F F
0.3746432740078635 0.3748978329508447 0.7500916037787265 F F F
0.3752300562581628 0.2502373359122297 0.8748240585766597 F F F
0.2490142739590318 0.3738059475715041 0.8747989474139358 F F F
0.5002402073661626 0.2505421539379596 0.7497918647311459 F F F
0.6252455266808664 0.3748322284367009 0.7501142904241137 F F F
0.6255411597078206 0.2498296472371848 0.8749836123466276 F F F
0.5000615760625798 0.3748910086161684 0.8746990700679302 F F F
0.7499582384220410 0.2500375907088283 0.7501523050283662 F F F
0.8751393668818789 0.3745188976982957 0.7502450688380307 F F F
0.8765026508924014 0.2471374853126929 0.8756643346075034 F F F
0.7509160634572735 0.3738911094334635 0.8749250661835997 F F F
0.0000779097120894 0.5000224805274106 0.7502253355690345 F F F
0.1251814420260700 0.6252558825638396 0.7501796071689747 F F F
0.1249632038518741 0.5001406915357380 0.8749760708231816 F F F
0.0000689085952575 0.6259702375328734 0.8751043187764194 F F F
0.2499223527327028 0.4999081503639233 0.7501879830611994 F F F
0.3749199915899212 0.6250873453988056 0.7500225944995162 F F F
0.3747249879112236 0.4999217160220369 0.8747740542675584 F F F
0.2497357926984619 0.6256183398313012 0.8750678487525669 F F F
0.5000058165232668 0.4998752392180040 0.7499467116914730 F F F
0.6249992064352727 0.6250260224283148 0.7498569992152947 F F F
0.6251861580644353 0.4998438882774933 0.8747674358015550 F F F
0.5000585716973693 0.6248117523251343 0.8747441833801787 F F F
0.7500076569537355 0.4997626319118839 0.7500914740544478 F F F
0.8747810872518370 0.6253525840635084 0.7500880278447185 F F F
0.8750758910148054 0.4999556839355548 0.8750169951644279 F F F
0.7501448218575518 0.6254347705116480 0.8748782644087273 F F F
0.0000247461835518 0.7507467613429432 0.7510891856511738 F F F
0.9996599108981321 0.0594412835146753 0.9406836543669880 T T T
0.9998381800915183 0.8796428028011444 0.8793344705460298 F F F
0.1248964721685599 0.8754145419984976 0.2494006977261772 F F F
0.8752247216224160 0.1246059086688130 0.2490325677693850 F F F
0.9996683037562905 0.0005903939055187 0.2475009913922058 F F F
0.8774048195551534 0.8783619117249515 0.0009133770084511 F F F
0.7497313719879104 0.1250261446817298 0.8752456237415897 F F F
0.7497602251425172 0.1243588476124123 0.1260321582945675 F F F
0.8763240745080128 0.0001030790133028 0.1229850886149614 F F F
0.7501652316787659 0.9992055153303433 0.0010492753873313 F F F
0.2504880701366837 0.9994266330045485 0.0010336762233120 F F F
0.9991820637633647 0.1199069324671498 0.1212160884305434 F F F
0.1229742709820384 0.9990122178754195 0.1232698194632970 F F F
0.2502075567397833 0.8748897283118371 0.1256297939498503 F F F
