#comment
1.0
16.184 0.0 0.0 
0.0 16.184 0.0 
0.0 0.0 16.184 
Al Mg Zn 
240 5 10 
selective
Direct
0.9998322008345466 0.0000772008044627 0.9990547992731817 F F F
0.1250556621404057 0.1271997409216731 0.0023218184158017 F F F
0.7497765910444624 0.8744071681992499 0.8736585806168009 F F F
0.8747768217565017 0.7497233873796477 0.8738626011420306 F F F
0.2500618827238402 0.0001713131780907 0.0000174574236496 F F F
0.3748541072022681 0.1249021976630605 0.9998646550715601 F F F
0.8745434837312037 0.8744824556433067 0.7491073194544239 F F F
0.7502314775178954 0.7498430774929471 0.7484754159480255 F F F
0.4999713438960430 0.9995524757441352 0.9983547873160659 F F F
0.6251494040215617 0.1249552983747171 0.9979823114474596 F F F
0.6253962016599628 0.9998387854611831 0.1229303560691213 F F F
0.5009747065208870 0.1248349209618911 0.1223581349916062 F F F
0.7497337851609202 0.9994806987328477 0.9983148494843197 F F F
0.8745184829669741 0.1244332930666676 0.9988595642434136 F F F
0.8748124859666034 0.9999239424910418 0.1227756743490828 F F F
0.7498549062704526 0.1256652634434206 0.1229773783595165 F F F
0.9984075004198741 0.2486633682907545 0.9936978240465056 F F F
0.1271284440723262 0.3771224787519547 0.9921144981032168 F F F
0.5003322425619184 0.8745285011148637 0.8738983113330191 F F F
0.6254256122269313 0.7496585177071843 0.8735036557000746 F F F
0.2477329192027203 0.2500148341566145 0.0022380098205003 F F F
0.3745307898658000 0.3750730592622121 0.9995247658157292 F F F
0.6252619724492062 0.8747166289335632 0.7488648711732168 F F F
0.5003536858093462 0.7498350480811095 0.7489732757664617 F F F
0.4996182296347450 0.2501403973486185 0.9985682325277477 F F F
0.6247795275669253 0.3754411750423418 0.9983609207362538 F F F
0.6249457996561188 0.2504851340596585 0.1229022048211071 F F F
0.4998644893036296 0.3754552903318430 0.1229198602790625 F F F
0.7499064986300015 0.2503406815409770 0.9984079393024897 F F F
0.8772067687800574 0.3752322645870689 0.0004760988690673 F F F
0.8772085046407462 0.2520868391008283 0.1221613855456845 F F F
0.7499808680308204 0.3752258567240236 0.1229415840252680 F F F
0.9999037018565874 0.4977275800869749 0.0005491544481487 F F F
0.1247994260167128 0.6245002830644656 0.9986195467753778 F F F
0.1230807050518875 0.4965212529636885 0.1229465392072199 F F F
0.9999355290139156 0.6245123692824969 0.1230731007062123 F F F
0.2506528251994997 0.5002701422559257 0.9992853459357641 F F F
0.3755609470587937 0.6251359161084796 0.9983810153526730 F F F
0.3749671444811234 0.5000109490371278 0.1230421715305754 F F F
0.2494556392979100 0.6245822423885763 0.1230552740234961 F F F
0.5002598943937925 0.5003483688210105 0.9981585532386265 F F F
0.6253071501511567 0.6250120045755885 0.9983694204202768 F F F
0.6250022587817453 0.5001497968771047 0.1228884395459874 F F F
0.5002885244394136 0.6250664834676233 0.1228307805124229 F F F
0.7501240735643292 0.5001522087608199 0.9985925029378525 F F F
0.8747904328071682 0.6248568088473095 0.9984788640736937 F F F
0.8768653615260166 0.4983602105888209 0.1228282870792724 F F F
0.7505382871437899 0.6244571757312255 0.1230066835137682 F F F
0.9996941287369782 0.7499130719351099 0.9982678162448186 F F F
0.1249480815429464 0.8750509265689213 0.9985018035708068 F F F
0.1245906410923581 0.7494447004050192 0.1228609895294603 F F F
0.9996931231514854 0.8746671564844490 0.1227995125993307 F F F
0.2500538625862100 0.7495777882591484 0.9980308051053328 F F F
0.3753315932108731 0.8749879147835772 0.9984465245386407 F F F
0.3752292710855101 0.7494643188947007 0.1229001626701774 F F F
0.2503757113879761 0.8734983455920409 0.1220502688403294 F F F
0.5004327645783362 0.7499852931613888 0.9981009461931865 F F F
0.6250344923619792 0.8745315947240855 0.9981657948762244 F F F
0.6253106185915922 0.7498310706539469 0.1229053486049695 F F F
0.5001212760234591 0.8748384946182365 0.1227021338567750 F F F
0.7500103183978851 0.7497249348435393 0.9984255421653554 F F F
0.8746935438506255 0.8745396117322657 0.9981004294564280 F F F
0.8749826728560880 0.7498729054447292 0.1228914609070094 F F F
0.7499651729619277 0.8747298701488034 0.1229597540399276 F F F
0.9994752077392572 0.9995982543396622 0.2455100867314460 F F F
0.1258590585971079 0.1284103205474401 0.2395375542638362 F F F
0.2501966331796413 0.8747116534768996 0.8744072051621241 F F F
0.3758569839192690 0.7498764131911982 0.8738360524984429 F F F
0.2499152731833929 0.9998040124557422 0.2416268583522519 F F F
0.3748256458330009 0.1258935757496488 0.2426824058760637 F F F
0.3754586952703697 0.8745612955519331 0.7497537912421947 F F F
0.2503533535808639 0.7495773046677757 0.7494203791177824 F F F
0.5008150088665997 0.9996777811615319 0.2471547934461409 F F F
0.6257409213965255 0.1251448574009003 0.2483239052346195 F F F
0.6250474575154851 0.9992038593369406 0.3742632493234894 F F F
0.5026814425623567 0.1254198928371165 0.3738258812900029 F F F
0.7494046773306385 0.9994918918772713 0.2484339318691946 F F F
0.8727691581049214 0.1244531488218866 0.2465267259905858 F F F
0.8741610418590655 0.9988369697046411 0.3739753622498875 F F F
0.7492499684382746 0.1243179172092174 0.3741041316622502 F F F
0.9972433699101603 0.2490702715655703 0.2483595353807210 F F F
0.1297335889166762 0.3771912786297604 0.2529551568466477 F F F
0.9996367720307545 0.8746592983310089 0.8742487516023870 F F F
0.1244745434261225 0.7495035778122823 0.8740537169169361 F F F
0.2473556126617577 0.2499926450847551 0.2407825010115777 F F F
0.3740873250073576 0.3761414985150836 0.2465997644711380 F F F
0.1248888739149141 0.8746009013946336 0.7499534606431774 F F F
0.9993899007774678 0.7496790262601051 0.7494747609263548 F F F
0.5010464699520503 0.2506193792685887 0.2472269068113627 F F F
0.6249965240707657 0.3757586632424348 0.2483611149163108 F F F
0.6254364898603972 0.2509667773389611 0.3740034737991255 F F F
0.5008771639227866 0.3762259230419642 0.3737975262741020 F F F
0.7489511929046204 0.2503611566937919 0.2480362039570119 F F F
0.8753578468784425 0.3755940826187167 0.2454911568099281 F F F
0.8705523510775522 0.2501164143231652 0.3749663412802625 F F F
0.7502681705706810 0.3761441911595916 0.3732022818558351 F F F
0.0002172984370359 0.4984369304721730 0.2458317046765514 F F F
0.1249595155668830 0.6247201192911990 0.2480881831229217 F F F
0.1267421403465326 0.5019187676481204 0.3750350371972607 F F F
0.9996372839998036 0.6236357244852897 0.3730397835836082 F F F
0.2510017493339185 0.5012793849468729 0.2478882097400778 F F F
0.3757226999553281 0.6251662352561744 0.2484388785784576 F F F
0.3755000508534456 0.4999536656386133 0.3741223000866200 F F F
0.2508068388355137 0.6252106108000328 0.3742132042770405 F F F
0.5003401336466993 0.5006628162933486 0.2483908760607318 F F F
0.6253208978425656 0.6251802909445295 0.2482750738433384 F F F
0.6251122747456491 0.5006736374652352 0.3741230768075646 F F F
0.5004487180152534 0.6250199318293180 0.3743124239747236 F F F
0.7495872654765214 0.5005364110096178 0.2480982324277587 F F F
0.8747589693233645 0.6251272170841821 0.2480323035843582 F F F
0.8736674693425261 0.5013377091618684 0.3743170602471029 F F F
0.7497352247145613 0.6253817225863476 0.3741770540296863 F F F
0.9995524046266614 0.7493642432553096 0.2483627838166579 F F F
0.1250362767764652 0.8728105533752036 0.2468561964690945 F F F
0.1242392758128125 0.7487426364023568 0.3738970419003970 F F F
0.9991502365460674 0.8740125335609747 0.3736959691370583 F F F
0.2500839099284570 0.7484410443947175 0.2483245300761341 F F F
0.3754661011348500 0.8738710186102194 0.2471481323659772 F F F
0.3762659159000180 0.7492886025086251 0.3742876308696208 F F F
0.2505114949476640 0.8708336730748734 0.3738028982559597 F F F
0.5007393304997765 0.7496887887286382 0.2483879142206077 F F F
0.6252587495389962 0.8743432627926994 0.2485047906081722 F F F
0.6252163552094095 0.7497616450095579 0.3742605000369556 F F F
0.5006441047215494 0.8743273212574098 0.3741369802060437 F F F
0.7500037343830982 0.7496334507981899 0.2483637886953027 F F F
0.8744882727229208 0.8742934173368724 0.2483981994949614 F F F
0.8748479902169695 0.7494430058699925 0.3739906601532939 F F F
0.7498529689472427 0.8744599875437103 0.3742672968692344 F F F
0.9993973945006863 0.9989553141341423 0.5016780942212157 F F F
0.1260481946814461 0.1262428838255642 0.5039583519236004 F F F
0.1245962247861464 0.9992991036512486 0.6263723348931708 F F F
0.9992730140779350 0.1244655617736265 0.6264891616056478 F F F
0.2500981258597524 0.9993370017327510 0.5041365250681689 F F F
0.3751804244324853 0.1258274914692940 0.5034838466182391 F F F
0.3758856593739292 0.9992807036641994 0.6259247472035836 F F F
0.2506252065768603 0.1248727441720164 0.6274930642881793 F F F
0.5008866538576759 0.9997233876169399 0.5005509010926584 F F F
0.6255063756472897 0.1248945012106353 0.4999321666235260 F F F
0.6254621517484973 0.9995531713815542 0.6244544137423277 F F F
0.5007645244511495 0.1246163228983496 0.6256137332825897 F F F
0.7496784622854217 0.9996297655984565 0.4993303445941361 F F F
0.8731763825141058 0.1250118144223383 0.5011641103970240 F F F
0.8744337029616203 0.9992929611302177 0.6250469377508812 F F F
0.7495232406324223 0.1248496561150676 0.6248776918990454 F F F
0.9996338638835057 0.2504460012142815 0.5046292001690320 F F F
0.1266962763469719 0.3757101642317786 0.5017417067852574 F F F
0.1250165722547388 0.2506292366370281 0.6272853205879523 F F F
0.9996593143664119 0.3760766854746085 0.6256360727503041 F F F
0.2490894213751781 0.2510357099193931 0.5025798658682514 F F F
0.3753503368611997 0.3763298442025959 0.5009633612247448 F F F
0.3755119714978497 0.2507504342229570 0.6259332763714819 F F F
0.2506104195291259 0.3759275876547331 0.6261958449100591 F F F
0.5008906918357655 0.2506675072535721 0.5004937787235980 F F F
0.6251007836828686 0.3760676440055401 0.4994845005681356 F F F
0.6247164753244917 0.2504946569942536 0.6248408468477847 F F F
0.5005188902360974 0.3757481277245621 0.6249117039432850 F F F
0.7484651354714366 0.2506577005214595 0.5000822416828136 F F F
0.8731379642092699 0.3757939760932152 0.5010402851830086 F F F
0.8739766882686436 0.2503933986507199 0.6259811006961674 F F F
0.7495048761199595 0.3756892482571935 0.6247928773457041 F F F
0.9998498023389422 0.5012345169663154 0.5006469992316752 F F F
0.1248920799759991 0.6254389877908357 0.4997679644168820 F F F
0.1250353080842770 0.5005629264666286 0.6251984770260466 F F F
0.9995513316094948 0.6252356713143107 0.6245022953143602 F F F
0.2506169443682119 0.5006629498291476 0.4999275206710709 F F F
0.3755711085308968 0.6248381227580304 0.4993766739292447 F F F
0.3756822143709105 0.5005229169856938 0.6248661996531411 F F F
0.2504461515714854 0.6249481735705893 0.6245961667755889 F F F
0.5003293355132555 0.5007673851389451 0.4998311923635173 F F F
0.6251944136409011 0.6250598038218601 0.4993758491829897 F F F
0.6250406940505795 0.5003834711384325 0.6243639121992826 F F F
0.5000513533822932 0.6251518289029102 0.6243314669353615 F F F
0.7496097928457651 0.5005298478924510 0.4994264449599976 F F F
0.8748027965497162 0.6252315355702079 0.4993464945696070 F F F
0.8744861888980555 0.5007221230993362 0.6248440292248324 F F F
0.7500338380693986 0.6249999344666904 0.6239547369593464 F F F
0.9993757914025876 0.7494218223951725 0.4993227511896393 F F F
0.1250369556678479 0.8731400930819633 0.5007626259392522 F F F
0.1247087817515059 0.7498344500501271 0.6247344619138466 F F F
0.9995266908522463 0.8741391411622610 0.6248632535885197 F F F
0.2504541407323736 0.7487218625398880 0.5000170642101429 F F F
0.3755259684592411 0.8737979006711866 0.5005638135652790 F F F
0.3755822232478890 0.7494094225064066 0.6245457443195109 F F F
0.2505900625691707 0.8738278109590615 0.6258096820138179 F F F
0.5005018307193269 0.7496321313119021 0.4995834027991070 F F F
0.6253079029972918 0.8746056921339430 0.4993940279919143 F F F
0.6251584495795164 0.7500836030155557 0.6239160233458039 F F F
0.5002972327873006 0.8746522867330039 0.6246496333557094 F F F
0.7501950103155818 0.7498483642381756 0.4992128714937402 F F F
0.8744413506228933 0.8743832724972629 0.4996542547325053 F F F
0.8748216549829891 0.7499352219508866 0.6241641916195265 F F F
0.7499886403213305 0.8750286052796199 0.6240417625322755 F F F
0.9996880350937637 0.9989804417911754 0.7501952037140456 F F F
0.1247065296262137 0.1246519634498064 0.7505649301128428 F F F
0.1249912061277240 0.0007120106562594 0.8758674331154406 F F F
0.9994946248324940 0.1237984226855492 0.8737854932729554 F F F
0.2500847431678481 0.9997388050247692 0.7506157057872597 F F F
0.3753265783728808 0.1250344835675604 0.7507733091986203 F F F
0.3755763738001182 0.9993640977830842 0.8743794552181533 F F F
0.2502595462241457 0.1247388198717931 0.8750322480460953 F F F
0.5004065955522398 0.9995171768052088 0.7498398609874957 F F F
0.6251928649213040 0.1247364309196430 0.7495232095629755 F F F
0.6250789279563470 0.9991608286692256 0.8737756015457291 F F F
0.5001104541727616 0.1248183962397610 0.8744441444224211 F F F
0.7499391565246806 0.9996096798947327 0.7493104044604753 F F F
0.8745361870343240 0.1246824444981279 0.7498938716205878 F F F
0.8743885474742239 0.9990749232719958 0.8739874452656484 F F F
0.7496974771455656 0.1245286653913964 0.8739119787828441 F F F
0.9995091110176656 0.2502221976713524 0.7501283311765785 F F F
0.1249031517019670 0.3755920888492298 0.7500680391079186 F F F
0.1255404982502720 0.2494848873413706 0.8741097473209309 F F F
0.9990293937801805 0.3759041185885822 0.8733858870625301 F F F
0.2504639161855734 0.2503272729415721 0.7504817171229504 F F F
0.3759852369674484 0.3753855962621075 0.7499242382979183 F F F
0.3742559352720184 0.2501232831064675 0.8760198350864900 F F F
0.2514961742373235 0.3755887144074071 0.8734623025762158 F F F
0.5000951813520106 0.2502051504957996 0.7500414199172919 F F F
0.6250494522963238 0.3757320785020099 0.7495168695065977 F F F
0.6251129393865482 0.2507185054520898 0.8741296483203185 F F F
0.5000900116827649 0.3755145753721644 0.8744195593933158 F F F
0.7492990248222111 0.2505151843148260 0.7494137981888870 F F F
0.8744445295737930 0.3756945819515651 0.7496043075502981 F F F
0.8734841232627569 0.2503196107158557 0.8734074976299507 F F F
0.7507362354577088 0.3758060838576835 0.8749717832195447 F F F
0.9995080166695538 0.5007022043349836 0.7496356679398741 F F F
0.1246917504220134 0.6254509324007471 0.7492039060502295 F F F
0.1249210505032485 0.5017485143734863 0.8732193355959627 F F F
0.9993621835022829 0.6241645375510910 0.8749537973719018 F F F
0.2504229211538943 0.5004720033360430 0.7495811306227027 F F F
0.3754818862310007 0.6250019549872954 0.7493821244005950 F F F
0.3758821412168682 0.5006007636913292 0.8742373126694203 F F F
0.2506276119380422 0.6250514992403036 0.8739688770432341 F F F
0.5004241267113193 0.5005170727994182 0.7493145301422182 F F F
0.6253432087717239 0.6248979642402891 0.7486706758824998 F F F
0.6252727705929675 0.5002100265426273 0.8739502570396976 F F F
0.5004435709873714 0.6252216138845235 0.8737221206828119 F F F
0.7499813452399759 0.5001672517633521 0.7493136095628126 F F F
0.8748001095437261 0.6250775001567191 0.7493082343390266 F F F
0.8745749580174978 0.5004096461722459 0.8741770500207933 F F F
0.7497575531474726 0.6251929302667769 0.8736785857271496 F F F
0.3718619674882899 0.2493020441758838 0.3727399847542033 F F F
0.0006103319278363 0.3731891125721634 0.3753264382909256 F F F
0.1285796311412049 0.0005505966595499 0.3726851606156242 F F F
0.0007660531716424 0.1278748149336037 0.3745504251329689 F F F
0.3722405733093848 0.0023773456924223 0.3737039369954436 F F F
0.2478388469045915 0.1269911440616517 0.3747728806537629 F F F
0.1294191958850477 0.2504552463124367 0.3733200472254007 F F F
0.2473004013420725 0.3738858025252571 0.1224417347835932 F F F
0.3751227438634691 0.2510960669586349 0.1219637770198723 F F F
0.0660358427493851 0.3128675159759079 0.1220496236588755 T T T
0.2507170556256487 0.3769122731973331 0.3754275666343866 F F F
0.2481465261276809 0.1272098613163484 0.1209030069396516 F F F
0.3750529894950894 0.0002266651232306 0.1218813549673696 F F F
0.0008361380627935 0.1274972499174104 0.1215128059235464 F F F
0.1239483233173083 0.9995288499798808 0.1215523440388255 F F F
