#comment
1.0
16.184 0.0 0.0 
0.0 16.184 0.0 
0.0 0.0 16.184 
Al Mg 
253 2 
selective
Direct
0.9998122372176567 0.9996156636871281 0.5004072395080099 F F F
0.1236025686046206 0.1225900415496144 0.9998245372225054 F F F
0.1344513158667562 0.0005693341413520 0.1253748442821382 F F F
0.9988484588592604 0.1196454939469591 0.1207322722873530 F F F
0.2524130569246914 0.0004919907312586 0.9986266385009815 F F F
0.3755862367412802 0.1254858655692749 0.9995479807606773 F F F
0.3756212514713060 0.9999248517306474 0.1249947055834391 F F F
0.2527474559909660 0.1269220862393388 0.1239203398273812 F F F
0.4995421938751155 0.0003920720950061 0.0001108830852691 F F F
0.6243990434444180 0.1259232700045411 0.0000988578814723 F F F
0.6243415626811252 0.0003987820482574 0.1255758410209034 F F F
0.4999935616002512 0.1252848849701292 0.1251147706668227 F F F
0.7479115679140717 0.0018030662738728 0.0005487897271528 F F F
0.8763079434733865 0.1230893872405974 0.9998460236625258 F F F
0.8664857678992274 0.0022186894202942 0.1273821782843777 F F F
0.7482120421049842 0.1271629218467928 0.1255284900974263 F F F
0.9997988456954030 0.2493858794811896 0.9997311089777067 F F F
0.1249859898431861 0.3753125635395047 0.9996108863715232 F F F
0.1246081809891748 0.2508703107246326 0.1234219405655247 F F F
0.9997690732041534 0.3755449362434581 0.1246486880911316 F F F
0.2494307700422350 0.2496302394154981 0.9994876522689891 F F F
0.3747643456249987 0.3749914920691728 0.9998774478007397 F F F
0.3756883138774665 0.2508684996583364 0.1245868974268297 F F F
0.2501332344023309 0.3754228714458105 0.1246344932743301 F F F
0.4999921975274974 0.2503895165507550 0.9998099316655030 F F F
0.6251812892293347 0.3749872076646785 0.9999433444212587 F F F
0.6247447483570802 0.2507430989924373 0.1249192993613143 F F F
0.5000260344845079 0.3754002262093295 0.1250204101720379 F F F
0.7508004287588860 0.2494279265001744 0.9999580812258889 F F F
0.8750692647189978 0.3749318360530923 0.0000543708471872 F F F
0.8749503202872339 0.2496576305053771 0.1247126563750692 F F F
0.7500640718029215 0.3749590382959668 0.1250131440390567 F F F
0.0000482043805809 0.5000854296453472 0.0000506034069703 F F F
0.1247094169215003 0.6256502573054616 0.0000289448454407 F F F
0.1249493925204276 0.5002078441527025 0.1249560656201540 F F F
0.0000068051718243 0.6259359535302230 0.1248247887050609 F F F
0.2498924812090265 0.5001702356414662 0.0000162568777564 F F F
0.3751838130326465 0.6243211304765331 0.0000552918686777 F F F
0.3748067526832761 0.5001538605882320 0.1250554074374912 F F F
0.2490939143870249 0.6257089804303042 0.1249995901107675 F F F
0.4999347948608006 0.4996266553330194 0.0000427953970018 F F F
0.6245149140367292 0.6239029863596922 0.0003787608819343 F F F
0.6252524102942137 0.5000133035752232 0.1251736098959756 F F F
0.5000041456679309 0.6247070614162414 0.1251559153577239 F F F
0.7501519428901838 0.5000776440151352 0.0001284063529606 F F F
0.8755458838344745 0.6252526092305178 0.0002919709602842 F F F
0.8750138639047805 0.5001209019868208 0.1250237791692136 F F F
0.7509214059658631 0.6253673439272150 0.1253580296858530 F F F
0.0004721791560554 0.7546198702569709 0.0030878606023430 F F F
0.1335275630690593 0.8724624804059085 0.9974591526213819 F F F
0.1233114889753942 0.7526648937594683 0.1250119046168345 F F F
0.0001398833008781 0.9369024908288218 0.0629165399908014 T T T
0.2517124121112134 0.7480190370493460 0.9997768878941463 F F F
0.3753467961750063 0.8747819441664931 0.9998232639418521 F F F
0.3753794452568700 0.7493947960975255 0.1251586400727374 F F F
0.2523893411519887 0.8735849147098074 0.1254924585339854 F F F
0.4994762943564900 0.7494116076142736 0.0001115758164148 F F F
0.6231934515968837 0.8747729779238377 0.0011928913504035 F F F
0.6244465560059987 0.7492821307632448 0.1255353647097746 F F F
0.4996524538156078 0.8747786937374203 0.1254827269030592 F F F
0.7481712913473456 0.7472182087508945 0.0010502233507576 F F F
0.8676756616838517 0.8721571728483866 0.9996736027212879 F F F
0.8767409153588965 0.7520187340439228 0.1256201962164601 F F F
0.7478570275857982 0.8742107543799267 0.1261728221654174 F F F
0.9988140799791394 0.9956811103346388 0.2445677845799035 F F F
0.8767039614435331 0.7484196806630996 0.8745043263261758 F F F
0.1246303386535696 0.9984384296930630 0.3757954945376833 F F F
0.9985437507086754 0.1242165182390974 0.3758704780245576 F F F
0.2526747283147798 0.9989045905558163 0.2518475551031139 F F F
0.3752348516922446 0.1251696396209578 0.2501573572586902 F F F
0.3756375587349058 0.9996015731245578 0.3758379423819526 F F F
0.2513878016796205 0.1252390695210222 0.3766281728211067 F F F
0.4999403995358377 0.0001056193341313 0.2502748082244854 F F F
0.6247379918821782 0.1253197477606556 0.2502785892673859 F F F
0.6246625633968946 0.9999250631527020 0.3756573906410008 F F F
0.4999926483597609 0.1250546397718572 0.3751932245119601 F F F
0.7482235144284327 0.0002268561742895 0.2518787821705334 F F F
0.8753642318528492 0.1255741198376228 0.2505297026533753 F F F
0.8750478801938251 0.9996943424227266 0.3744681963106156 F F F
0.7499570232623753 0.1253696266663424 0.3751815434067434 F F F
0.9984930280095620 0.2508626359799774 0.2490557877559743 F F F
0.1250370903644669 0.3750965720811852 0.2499158710284507 F F F
0.1247985783464614 0.2515059696463651 0.3764417544539231 F F F
0.9997262850329255 0.3754830103795715 0.3750801541244914 F F F
0.2513644411539371 0.2516633774429313 0.2501926624591658 F F F
0.3754024823309655 0.3755014575691114 0.2500404599756747 F F F
0.3753761462191580 0.2503485274709289 0.3753162677656258 F F F
0.2501896045154318 0.3756435377899333 0.3753801493583855 F F F
0.5000157237857097 0.2502144040453645 0.2499977638278414 F F F
0.6249998994522261 0.3751678935357595 0.2500646577884301 F F F
0.6250590614162980 0.2500992875161302 0.3750877015073648 F F F
0.5000517284578786 0.3750178179588146 0.3749847154053379 F F F
0.7499517674097340 0.2502802089093628 0.2502701351755551 F F F
0.8745473474200134 0.3754013436698447 0.2499024505186786 F F F
0.8746686406532137 0.2504315398282744 0.3753684446072389 F F F
0.7499439301772469 0.3751886935861193 0.3751314165277356 F F F
0.9999595226009900 0.5002032717056465 0.2498852971444094 F F F
0.1248562587908883 0.6252554376991889 0.2498767430351438 F F F
0.1248823052116494 0.5002374321315013 0.3749327452690777 F F F
0.9999747639594964 0.6258572529454912 0.3741401138733201 F F F
0.2499104844611787 0.5001662931915130 0.2499299485065030 F F F
0.3748447755401771 0.6249461643875271 0.2499487297794369 F F F
0.3750446645934346 0.5001268051934924 0.3749509986257391 F F F
0.2500451294421644 0.6249051327090612 0.3751296124006657 F F F
0.5000810323073310 0.5001693657101793 0.2500133644056544 F F F
0.6252523436207718 0.6248647525626734 0.2500301962812669 F F F
0.6250276707970945 0.5000689010185880 0.3749587976655747 F F F
0.4999931098740882 0.6249715182741880 0.3750095749430870 F F F
0.7500273339005831 0.5001477820767593 0.2499709208248883 F F F
0.8750451552206833 0.6250805653600729 0.2500203303241286 F F F
0.8750603358899944 0.5002222672333316 0.3749456933337494 F F F
0.7499973338875104 0.6248207828597723 0.3750884374939147 F F F
0.0000648074157119 0.7525663502905153 0.2474568038622359 F F F
0.1235149535736470 0.8748612045113645 0.2474364021225880 F F F
0.1249246804154288 0.7499603289078758 0.3748296421568967 F F F
0.9998533936738520 0.8746675694124283 0.3742385414140220 F F F
0.2500279012631618 0.7497211497989773 0.2501786378621175 F F F
0.3755483978898313 0.8745028288953771 0.2504830080138923 F F F
0.3748098497526720 0.7499221596786148 0.3750792754676748 F F F
0.2494479595419146 0.8744615883161936 0.3745609261332085 F F F
0.4999939203429403 0.7495226479652376 0.2504146062264612 F F F
0.6245602115201113 0.8747410201677562 0.2505047062591678 F F F
0.6251836229661301 0.7499479474091333 0.3750857538755899 F F F
0.4999493974444553 0.8747557153662912 0.3752870722317712 F F F
0.7498948399037706 0.7496439154564656 0.2502557578494681 F F F
0.8762009588621762 0.8745316936083333 0.2475185153447158 F F F
0.8751230554550715 0.7499203150365771 0.3748139973436839 F F F
0.7508533101733869 0.8748713134056103 0.3743237020585510 F F F
0.8768240576443158 0.8750288769204544 0.7491403347755130 F F F
0.1250212042037533 0.1249223677833183 0.5000934478883685 F F F
0.1250170264847173 0.9999946769009943 0.6251151103498206 F F F
0.0000161028372117 0.1249439559828089 0.6251609113632486 F F F
0.2501076705018840 0.9996474639082079 0.5003802161202365 F F F
0.3754178573753615 0.1250452131951621 0.5005059614419365 F F F
0.3747413515983117 0.0000739949545812 0.6250641705594741 F F F
0.2499103273520218 0.1249771904024756 0.6251487631588548 F F F
0.4999907812632083 0.0000047131302061 0.5002899563870140 F F F
0.6250212888755128 0.1251400039463946 0.5000873229523465 F F F
0.6250055911341433 0.0003993502934278 0.6245437719671201 F F F
0.5000417165715145 0.1250838183013371 0.6251042143586649 F F F
0.7500991052104953 0.9999415807313329 0.4998704365965705 F F F
0.8745479467408898 0.1250071553969785 0.5002939364643290 F F F
0.8753432507215214 0.0002633936470132 0.6246168310942403 F F F
0.7500595262438938 0.1253018185806713 0.6248730831039330 F F F
0.9996855627497045 0.2500850264072151 0.5004964762876793 F F F
0.1249480668388703 0.3754546676892033 0.5004175160517376 F F F
0.1248581668418477 0.2499511203928442 0.6252332639759757 F F F
0.0000240920057930 0.3749241714343508 0.6251665151302553 F F F
0.2501836137962571 0.2504407218159883 0.5006243615740318 F F F
0.3749373628562233 0.3750184217039344 0.5000180900004615 F F F
0.3750379270123262 0.2499535050975954 0.6251398842883149 F F F
0.2500055076616665 0.3750136434372749 0.6251139016788084 F F F
0.5000815412007600 0.2500020578980758 0.5000068002951344 F F F
0.6250581793795856 0.3750246389962383 0.5000133290914314 F F F
0.6250302406010817 0.2500508598127401 0.6250078665790749 F F F
0.4999692477310324 0.3749711026659201 0.6249608751835589 F F F
0.7499500167899525 0.2501973847485712 0.5001235099172825 F F F
0.8750132776960688 0.3750579864554797 0.5000474010914361 F F F
0.8750692599125373 0.2499931004230455 0.6251900810769818 F F F
0.7500473187643985 0.3749168761928638 0.6249585063837030 F F F
0.9999776798345443 0.5002121798899215 0.4999279466905892 F F F
0.1248688255344269 0.6250685628192968 0.4999427276481676 F F F
0.1249634002394654 0.5000816041100286 0.6250833581694710 F F F
0.0000359082358738 0.6251089808414766 0.6250560074731393 F F F
0.2499913218712548 0.5001477440280027 0.5000179114325353 F F F
0.3750130769493849 0.6250517022248321 0.4999911482389002 F F F
0.3749218553715361 0.5000174012065249 0.6250260296209977 F F F
0.2499611561518553 0.6248789400344862 0.6248862826973116 F F F
0.5000240123636077 0.5000227620980398 0.4999726643757527 F F F
0.6250158592717949 0.6249804913520547 0.4998748463739285 F F F
0.6250923380288596 0.4999446348997924 0.6249598977147142 F F F
0.4999468715725885 0.6249790996730694 0.6250163113237528 F F F
0.7500372146998054 0.4999799803212289 0.4998395900011263 F F F
0.8750950687743072 0.6249725929918983 0.4998042804503952 F F F
0.8750884573643516 0.4999197642426646 0.6249128885561240 F F F
0.7500596249172309 0.6244431346641232 0.6244789760621444 F F F
0.0000396995345994 0.7499956277088140 0.4999026575844637 F F F
0.1250733905560868 0.8745769768476921 0.5001778112208450 F F F
0.1251008110148091 0.7499729070501147 0.6250334726269110 F F F
0.0004583030646768 0.8750047543544851 0.6247026593466789 F F F
0.2499308058344281 0.7499537044504611 0.4999512345633374 F F F
0.3746755912297191 0.8748334514107634 0.4998817175857995 F F F
0.3748991061991657 0.7499335318677632 0.6248590602636892 F F F
0.2499020886760807 0.8749851964698699 0.6250824924846138 F F F
0.4999331102283287 0.7499557800923933 0.4998234851031449 F F F
0.6252326073674750 0.8748623307336223 0.4999072780121222 F F F
0.6247046365028154 0.7495889195295747 0.6244088757009963 F F F
0.4996055493398455 0.8749995589735742 0.6242172005825380 F F F
0.7501137922936829 0.7500141165250599 0.4998409342301219 F F F
0.8750532194437372 0.8749758905985365 0.4998428857047419 F F F
0.8752850692189413 0.7497961952455050 0.6244749496779793 F F F
0.7501543516806032 0.8750452254553939 0.6250198572731630 F F F
0.0003726870195860 0.0000596594369170 0.7508086640655951 F F F
0.1249325614199056 0.1249673742105681 0.7502321272049134 F F F
0.1232545976896043 0.0000207979072635 0.8777270038875398 F F F
0.0003014398798356 0.1228556249551386 0.8776069295081920 F F F
0.2491151583414303 0.0000436275701692 0.7506899936029878 F F F
0.3747610605036096 0.1250486305551437 0.7499300398805918 F F F
0.3754488920856628 0.0001196242112556 0.8744862440994733 F F F
0.2500232446234768 0.1252480828631942 0.8747748621271817 F F F
0.4995496687839127 0.0004447796918166 0.7494312175039101 F F F
0.6250519753246134 0.1255101371860688 0.7496472557214074 F F F
0.6233293770531682 0.0015493674681526 0.8746103541932994 F F F
0.4996816931509767 0.1257922439043731 0.8746029308043535 F F F
0.7509407896683867 0.0015154390891139 0.7492079263861254 F F F
0.8753825275204455 0.1253946582018951 0.7500594543504471 F F F
0.8779168724460875 0.0009203844959119 0.8779074374862039 F F F
0.7499714939430954 0.1251589369517889 0.8748419236884649 F F F
0.0000472598093262 0.2492794120470136 0.7508885210384154 F F F
0.1249106216646344 0.3749563173004815 0.7500309910371048 F F F
0.1249726760976140 0.2499414255723078 0.8749939576476559 F F F
0.0000641920087385 0.3749902435574902 0.8750322855159366 F F F
0.2500526496365426 0.2501560496123720 0.7499039520083649 F F F
0.3749902332607520 0.3749828304461993 0.7500324169728672 F F F
0.3747131534202083 0.2501921186961624 0.8749576650618582 F F F
0.2499140874951775 0.3749756489771873 0.8749970807806107 F F F
0.4999660805856246 0.2501319525991385 0.7499563653728208 F F F
0.6249782056069195 0.3749615107456185 0.7500045289364817 F F F
0.6252358814890722 0.2501606682796747 0.8750490066281608 F F F
0.4999139421211009 0.3749162293392777 0.8749925257930333 F F F
0.7500420242176049 0.2501416083521371 0.7499107683719034 F F F
0.8751469356847662 0.3748894548290618 0.7499854934288537 F F F
0.8750826951686027 0.2499261490625222 0.8750307636307166 F F F
0.7501136140675564 0.3749154729744759 0.8750756852823932 F F F
0.0000745397387541 0.5000434529603117 0.7501359936598017 F F F
0.1249492544578694 0.6248602104008376 0.7499395232005867 F F F
0.1250757922702661 0.5000755958395554 0.8750212941289278 F F F
0.0003684838657153 0.6253731955691282 0.8759715710009827 F F F
0.2499653342371123 0.4999025203327677 0.7499013038971675 F F F
0.3748529866594749 0.6249218121257751 0.7499770970817867 F F F
0.3748840118463414 0.4998469113883238 0.8749648839833680 F F F
0.2500006349567758 0.6247378809446354 0.8747742479569000 F F F
0.4999380802671292 0.4999905319816342 0.7500189694639948 F F F
0.6248385000685591 0.6244474230154160 0.7497157106370871 F F F
0.6249745225775183 0.4999049606232863 0.8749640408788600 F F F
0.4996021823945725 0.6243717743141460 0.8749822634306401 F F F
0.7500560410743904 0.4998824053883099 0.7498866846044782 F F F
0.8754694754628172 0.6244130794324065 0.7496227370443775 F F F
0.8750259225533265 0.4999870404247609 0.8751088556645569 F F F
0.7500650870194667 0.6248518644557417 0.8748612987648433 F F F
0.0005294225342037 0.7505117867320252 0.7504253889200091 F F F
0.1247019719831359 0.8749874736609737 0.7506863623851857 F F F
0.1248110841780956 0.7493244030515699 0.8744617219007547 F F F
0.0002184807718034 0.8776271266466440 0.8799713734975454 F F F
0.2500003381539736 0.7496551744339037 0.7497465303791405 F F F
0.3752302038957214 0.8750335963702165 0.7493737650030635 F F F
0.3751906412742674 0.7497477176754369 0.8748193986676965 F F F
0.2517654297488044 0.8746936121610230 0.8730953884131053 F F F
0.4994703522100258 0.7496498383243017 0.7495141653756368 F F F
0.6233686871487619 0.8750628252337475 0.7480329052883186 F F F
0.6233117622473674 0.7482593027656338 0.8747650157041202 F F F
0.4999476875495975 0.8748598690915026 0.8748055995725789 F F F
0.7500279059355891 0.7483002883303314 0.7483693351061320 F F F
0.7483887347959098 0.8748568614845610 0.8731666717418914 F F F
0.1244603309924101 0.1254268979847128 0.2503961251053859 F F F
