#comment
1.0
16.184 0.0 0.0 
0.0 16.184 0.0 
0.0 0.0 16.184 
Al Mg Zn 
225 20 10 
selective
Direct
0.0012662835274352 0.9997925901503998 0.4976247689268986 F F F
0.7464953498422567 0.7467451777663641 0.7475372922783078 F F F
0.4986275323150591 0.8735299933343937 0.8734808696426064 F F F
0.9961586295388920 0.1273911038296845 0.1256994582526930 F F F
0.6218942763907519 0.7482509984823580 0.8739071513120892 F F F
0.3770611776644306 0.1272198073167962 0.0004370533132199 F F F
0.3781097971009231 0.9996989620325362 0.1282896794580620 F F F
0.2561640176963896 0.1298042057327060 0.1305531095246386 F F F
0.4971250926124969 0.0002112981987797 0.0003005045276008 F F F
0.6206226206227369 0.1261656391258592 0.0009205450597772 F F F
0.6200550751304087 0.0014469748282430 0.1260376175958345 F F F
0.4993228459259586 0.1267054485663006 0.1263433089802645 F F F
0.6218794706500171 0.8738551605319602 0.7478322304348861 F F F
0.8738794736864564 0.1190013740343948 0.0047247985265777 F F F
0.4990876363735117 0.7485551488951708 0.7481725400905398 F F F
0.7452115365884430 0.1250021897061014 0.1238197252529066 F F F
0.3755765362630340 0.7485415966166901 0.8728390860137965 F F F
0.1270580917151303 0.3782764493310128 0.0014665059411742 F F F
0.1270263539674761 0.2568711458127711 0.1324350507480564 F F F
0.9991143296058188 0.3804158945713065 0.1288763622404959 F F F
0.2555819707909989 0.2567208408172451 0.0009734136699797 F F F
0.3772824373610294 0.3774851225127476 0.0000496111934609 F F F
0.3772181060472869 0.2527409775036649 0.1266478339981632 F F F
0.2523796099841990 0.3773505317355162 0.1271501258305300 F F F
0.4996909845291225 0.2520445829233092 0.9999716966292932 F F F
0.6244209410253401 0.3756055544889152 0.0000938243340014 F F F
0.6234314260201643 0.2513736399133996 0.1254845583329738 F F F
0.5004238389545324 0.3759027891130380 0.1264041023754017 F F F
0.7505356899830719 0.2514995309120874 0.0018447385111686 F F F
0.8713356318674466 0.3805965446091749 0.0008732545704514 F F F
0.3751457707389837 0.8737665547083479 0.7471753741419908 F F F
0.7479542225476233 0.3765726775929249 0.1261708135261095 F F F
0.0005292876701437 0.4997789254210607 0.9993984384889644 F F F
0.1263272375944265 0.6241757496921773 0.0013087044349776 F F F
0.1265647878392782 0.5002852901547202 0.1262140639051624 F F F
0.0011018677656362 0.6203533941424569 0.1271678982963626 F F F
0.2511611778479086 0.5003293553725562 0.0001794562317402 F F F
0.3780105214968873 0.6222149464160159 0.0001714514178759 F F F
0.3766013837762850 0.4998523029852280 0.1261389964576602 F F F
0.2525342892120605 0.6221338685588980 0.1269611314644492 F F F
0.5014370229821916 0.4993030300703902 0.9998577545698166 F F F
0.6229459419342814 0.6238169936034771 0.9999073340692513 F F F
0.6237411791733966 0.4996702918766168 0.1259533627245225 F F F
0.5002642506136679 0.6239218933714591 0.1262294843063124 F F F
0.7475921119845540 0.5003219827701519 0.9997972263669707 F F F
0.8741945530860735 0.6211884858450091 0.9977658385955056 F F F
0.8734218007134162 0.5015011451485238 0.1263778172578308 F F F
0.7467815989124709 0.6222367973410375 0.1260768679906910 F F F
0.2518238446547304 0.7461662969247072 0.7460462749641373 F F F
0.0013528282357299 0.7423460415190484 0.7413340576477181 F F F
0.1274653849838116 0.7406360021078305 0.1344471696401049 F F F
0.7481146323597898 0.6234113289944241 0.8735116936370295 F F F
0.2580440276677894 0.7422467363898390 0.0010454889791203 F F F
0.3766443001564736 0.8717791364198558 0.9998039034315612 F F F
0.3770409610529599 0.7482184231958262 0.1269787232829129 F F F
0.8739523802791535 0.5009116179423406 0.8735070471251957 F F F
0.4990186118855012 0.7479196140706819 0.0000010362725042 F F F
0.6190650695606074 0.8744119581261417 0.9999540570185156 F F F
0.6228114473055538 0.7484332016208264 0.1258851030898233 F F F
0.4997883113732213 0.8736694175582423 0.1263593970632470 F F F
0.7466976209642604 0.7459043361893467 0.9986281010047209 F F F
0.8735733855695094 0.6237662065631504 0.7486762918263299 F F F
0.7485357843727451 0.5001883423354908 0.7488098297664538 F F F
0.4997098542916241 0.6245161480111197 0.8738009881441772 F F F
0.6236843240298083 0.5002081421448930 0.8738151400216234 F F F
0.6234273976615275 0.6237258763865797 0.7486670467716904 F F F
0.1288205808808568 0.0005209633931277 0.3772658917250803 F F F
0.0008208954423832 0.1288096841028793 0.3789924933790961 F F F
0.2539269685264581 0.9999886864284510 0.2533469220807383 F F F
0.3773821617121552 0.1266072374968155 0.2525730011605581 F F F
0.3768338700829674 0.0001396333995568 0.3759500103454049 F F F
0.2520217148485226 0.1268796143199719 0.3757697270484538 F F F
0.5000098343431661 0.0003003515965244 0.2520208273039990 F F F
0.6236437416410200 0.1266266632994794 0.2512482096151184 F F F
0.6231794688292881 0.0001479957151198 0.3766688745631820 F F F
0.5004832663930414 0.1267251143054152 0.3756622286997541 F F F
0.7466873080451937 0.0007133134413650 0.2536409634357225 F F F
0.4999491418690088 0.5000423939091786 0.7487796111583553 F F F
0.8722307837461651 0.0000374249013360 0.3798657509678607 F F F
0.7469671445054487 0.1267127519800427 0.3775116552717641 F F F
0.0007110443905249 0.2526210585663733 0.2511004811649964 F F F
0.1264809298419100 0.3781410042254538 0.2529875327574895 F F F
0.1263160758557715 0.2520566568322841 0.3759476969967382 F F F
0.0000809736504986 0.3760857337885040 0.3758799659388695 F F F
0.2523213975088772 0.2526742100729076 0.2531318483668031 F F F
0.3761915322846335 0.3757421904871406 0.2513281510949155 F F F
0.3762811426449099 0.2515965316304068 0.3759006614866467 F F F
0.2515963867468917 0.3761206803594651 0.3761219814783097 F F F
0.4999927867924813 0.2516248666590235 0.2511658097984299 F F F
0.6233457465838235 0.3760455467219097 0.2509800889742566 F F F
0.6234826271776813 0.2516678992558894 0.3758733941088552 F F F
0.4999476174721990 0.3756947604454925 0.3754753237191150 F F F
0.7458806839313463 0.2534111371695025 0.2515122942777980 F F F
0.8736241958321540 0.3758435271167764 0.2513413808777462 F F F
0.8736575812358437 0.2536233296152411 0.3774584017189234 F F F
0.7484665815094623 0.3760178146545561 0.3755016811176931 F F F
0.9999240895219077 0.4997038300117794 0.2525235409749549 F F F
0.1263999089234822 0.6210872738758735 0.2538816930471463 F F F
0.1262805337409976 0.4996965415820350 0.3769676080184048 F F F
0.0000073111264139 0.6230787170077771 0.3770653759752538 F F F
0.2517659689816590 0.4998758022632814 0.2516860867149641 F F F
0.3760868763437479 0.6240712389813875 0.2510270956326897 F F F
0.3761263051430623 0.5000288038032472 0.3753195004592234 F F F
0.2517272217435887 0.6237826369248543 0.3759385402458073 F F F
0.4999852204334457 0.5002426866292652 0.2509532993853571 F F F
0.6235239001269840 0.6235079535518282 0.2512058033059586 F F F
0.6242128046125434 0.4998701468414170 0.3755459220752380 F F F
0.5000313755335679 0.6243342797456569 0.3754674428443648 F F F
0.7484072735213504 0.4991949364898153 0.2511180323188594 F F F
0.8736149981057323 0.6218751060237077 0.2532412112194138 F F F
0.8735765420871795 0.4993568253367378 0.3756512304678596 F F F
0.7482384590640214 0.6234801149482373 0.3757059741846961 F F F
0.0004865272243825 0.7462511001904775 0.2556204346054475 F F F
0.1286687862829070 0.8718638379418239 0.2539450970781853 F F F
0.1266539778684264 0.7477973119787019 0.3767738322555463 F F F
0.0006528650727646 0.8723884278824633 0.3781389061291560 F F F
0.2529218729141406 0.7476836093722599 0.2527782583351972 F F F
0.3769090178779543 0.8737416976477005 0.2517719579515083 F F F
0.3763204927517428 0.7481889799092627 0.3758427645288935 F F F
0.2522834611188398 0.8737561475331383 0.3764659992460201 F F F
0.4998057211555427 0.7483640895207347 0.2511583409530382 F F F
0.6227180749294213 0.8744343399840684 0.2517299763794164 F F F
0.6236681997175794 0.7482811786405668 0.3758568864235844 F F F
0.5000930731805551 0.8735379536459214 0.3756212545453704 F F F
0.7468178957558282 0.7475104274969472 0.2535142085943549 F F F
0.8718471540908302 0.8734423007874406 0.2575781740853029 F F F
0.8733844575856695 0.7470323243956956 0.3775367529027891 F F F
0.7474552035540573 0.8739958795018808 0.3773886197382466 F F F
0.2525769452535167 0.6220113800395195 0.8737700752728487 F F F
0.1272236579184292 0.1270818684956774 0.4985494169239196 F F F
0.1277644386280634 0.0005621635295347 0.6176804122495421 F F F
0.0020002204774334 0.1263380459435990 0.6200620144065231 F F F
0.2524674859143139 0.0003370369195272 0.4984918915682087 F F F
0.3762680389607789 0.1264279635325331 0.4992183511928541 F F F
0.3755565070028279 0.0002635938091991 0.6232383897105853 F F F
0.2524919017801794 0.1275579915571233 0.6212598903950514 F F F
0.4997644862498635 0.0001188741932907 0.4995236080046032 F F F
0.6232717289442540 0.1264278234889187 0.4998425565824075 F F F
0.6218452708041321 0.0000949201186038 0.6226857243122940 F F F
0.4995318624868581 0.1263129698043655 0.6238530996122180 F F F
0.7477820976788213 0.9999176939129311 0.5000610366362929 F F F
0.8735121147279348 0.1269494978604780 0.4998860845301826 F F F
0.8760843125365420 0.9989482711672254 0.6190135964481863 F F F
0.7468738385363196 0.1267020662351319 0.6216752341771562 F F F
0.0003384591247823 0.2525314186776488 0.4999304340821781 F F F
0.1262978481881050 0.3761475167023329 0.4994156002989084 F F F
0.1262767025334188 0.2530388810149480 0.6218098588889751 F F F
0.0002522895675944 0.3775632748586990 0.6233218759195273 F F F
0.2513740807612790 0.2517998374558922 0.4992041416559924 F F F
0.3757036880739892 0.3756731493311006 0.4999910614185554 F F F
0.3761562769694188 0.2514751251828358 0.6234118742798282 F F F
0.2512569983166327 0.3759583118439802 0.6236025865345936 F F F
0.5000789412493822 0.2515252621918067 0.5001391039792806 F F F
0.6239826060713128 0.3756515356138108 0.4999803829932915 F F F
0.6232700557115262 0.2512698965212133 0.6238773008153405 F F F
0.4999714732569034 0.3755410971248792 0.6244291437688760 F F F
0.7479834050697333 0.2524124251122191 0.4997061655097432 F F F
0.8736658289127600 0.3764940939170943 0.5000476179691413 F F F
0.8739406905079401 0.2533941421680262 0.6217372103239966 F F F
0.7481212369315440 0.3759992133504088 0.6238706358478170 F F F
0.9997525944632781 0.4991882854087024 0.4993089695420432 F F F
0.1263687499673512 0.6233883499557188 0.4995295921543159 F F F
0.1263170033061685 0.4998996798992216 0.6233922996003185 F F F
0.0001807678622656 0.6217154082961382 0.6219644862517646 F F F
0.2518646650969228 0.5001378800329667 0.4999086902907358 F F F
0.3757294166095846 0.6240212909135420 0.4999983651694737 F F F
0.3755362921781997 0.4999702100039406 0.6245211282692296 F F F
0.2512302966417065 0.6234891169303355 0.6236996231974310 F F F
0.5001454495195788 0.5001060162943486 0.4999835412771746 F F F
0.6240363714679384 0.6242049841904374 0.5001683032320049 F F F
0.6243548686700400 0.4999432006744676 0.6245857196163841 F F F
0.4997931641808394 0.6239405118156124 0.6241011929305724 F F F
0.7485246422755704 0.4999134168590202 0.5000461428651368 F F F
0.8736262007682907 0.6234019739181931 0.4996971297234480 F F F
0.8736830664761798 0.5000716281645395 0.6243603729273058 F F F
0.7484703818365802 0.6235857993013392 0.6238288886498495 F F F
0.0002954146344884 0.7479766631184378 0.4996683325945653 F F F
0.1270931276970248 0.8733567166868542 0.4984149251296617 F F F
0.1268420549392389 0.7471216905116028 0.6209814885631834 F F F
0.0017363216783956 0.8731787499469134 0.6202111394521787 F F F
0.2518717905656165 0.7483608850423097 0.4993680265381455 F F F
0.3762527068343068 0.8738888418594861 0.4992594000628155 F F F
0.3759113870674859 0.7481401276714064 0.6231663706156853 F F F
0.2522703605840685 0.8733411521326907 0.6215261889970369 F F F
0.4998363158648109 0.7484812107969422 0.4998734370829092 F F F
0.6234588948096317 0.8736165200652520 0.4997768992928744 F F F
0.6232362333828692 0.7485614782130225 0.6236493481807255 F F F
0.4991729184328066 0.8738837418287826 0.6239174249097774 F F F
0.7479903642865875 0.7478822789394800 0.4994479471961057 F F F
0.8737022643229380 0.8731004910808696 0.4995761341052076 F F F
0.8736153190684568 0.7468192504617341 0.6215021379104330 F F F
0.7473680843636161 0.8732124281053587 0.6221831046080414 F F F
0.3766969493001410 0.4996315557098992 0.8739587236992279 F F F
0.1273058682682201 0.1321867471521673 0.7412192321805966 F F F
0.0712024616089794 0.9955682122847193 0.9442912568990146 T T T
0.3759519829124744 0.6236464991647671 0.7485842048994651 F F F
0.2477720560092820 0.0007614802575259 0.7416871492720960 F F F
0.3763522604849856 0.1263170327409255 0.7472295721052892 F F F
0.3764427529842659 0.9987736110639824 0.8721191520424360 F F F
0.2513877897055575 0.5000499921027300 0.7488179490423420 F F F
0.4984836451464394 0.9999669687435540 0.7474351707240185 F F F
0.6224169566403933 0.1265263457039857 0.7479828723251144 F F F
0.6178365845326399 0.0007211880499883 0.8738358035023462 F F F
0.4986050752876556 0.1264767233068424 0.8736414862781532 F F F
0.7445513245191369 0.9997501317619809 0.7433155615975313 F F F
0.0003823170947213 0.6259871748407496 0.8740689489104422 F F F
0.1256757248502486 0.5010155361190831 0.8748184892470419 F F F
0.1265344527577780 0.6218075831864570 0.7480634110412381 F F F
0.0003812460152227 0.2559078154059670 0.7454807488493816 F F F
0.1261001453528885 0.3786097250023412 0.7477751124051836 F F F
0.1268509074872188 0.2592944707599839 0.8719311584412573 F F F
0.9993044353785864 0.3794237913771076 0.8732071875412782 F F F
0.2524804516073137 0.2539519450748042 0.7468708414614870 F F F
0.3761873656335910 0.3762039365593278 0.7483416809557549 F F F
0.3759441266085918 0.2520868290090008 0.8733102764146193 F F F
0.2518360289997664 0.3778128429283039 0.8739326687326874 F F F
0.4997132411778523 0.2514753875918337 0.7486490149175719 F F F
0.6235449013050016 0.3760644756816022 0.7487265620460887 F F F
0.6233299570512105 0.2514631245921920 0.8747836753601647 F F F
0.5001141310938125 0.3754862862780097 0.8739033732659808 F F F
0.7471117028596377 0.2531194349979443 0.7476913291209549 F F F
0.8734340466530218 0.3775894104117546 0.7477475802558484 F F F
0.8712486704851049 0.2575236717760214 0.8737414443004675 F F F
0.7474737862620632 0.3774396860835535 0.8742730292320706 F F F
0.9998512360583642 0.5013925260348356 0.7492618874595156 F F F
0.7495908834071877 0.1224668744127818 0.8763322738502916 F F F
0.8734874175129655 0.7450897824831539 0.1262713289022256 F F F
0.8747016254588286 0.1250224470999002 0.7447875502092778 F F F
0.2457088516542214 0.1225694187398289 0.8707247566875400 F F F
0.9998953407584711 0.1329246291256183 0.8746197987598677 F F F
0.0139674355314129 0.9976813589509550 0.7538364613621749 F F F
0.7475498431031583 0.8781851442341129 0.8762851561964421 F F F
0.8710952588482397 0.1290029915896349 0.2511962415640440 F F F
0.8749856718146245 0.8734537783569462 0.7483296092999898 F F F
0.0001780466684040 0.0021144351583367 0.2557692181484767 F F F
0.7492008198744262 0.8775939085766316 0.1236794449071940 F F F
0.9943791306315980 0.2575099511633061 0.0045630379225613 F F F
0.8820732268088459 0.8857398745922007 0.9951734368659880 F F F
0.1280915825365250 0.1394348765738345 0.0069185473007448 F F F
0.9985832852312347 0.8737289465560893 0.1285418908749258 F F F
0.1289162171368481 0.8529234149048279 0.0075849371679763 F F F
0.1265713587666726 0.0022008862015257 0.1276188797053145 F F F
0.2522037150448271 0.9981557790526815 0.0030279358747845 F F F
0.0091766552866982 0.8554839124278579 0.8709923241131331 F F F
0.2399168151253893 0.8770916962108860 0.8685528443323332 F F F
0.8706372866534650 0.2551316319008733 0.1278640245213687 F F F
0.9971454183857329 0.7401730598324063 0.0038417468414934 F F F
0.8727022590522135 0.0029217203551277 0.1300298525836341 F F F
0.7436806100173962 0.0024244856707062 0.0018946479400420 F F F
0.1321120031407330 0.7378025132790464 0.8718724558466580 F F F
0.8792666960568409 0.0027729953558846 0.8708252752554158 F F F
0.2550069583407584 0.8712569254858903 0.1301807502123823 F F F
0.1273778506299190 0.1283221565852561 0.2542487999894498 F F F
0.8710344127788239 0.7446941433504496 0.8736661116362920 F F F
0.1277184827590103 0.8683077379244626 0.7377957059648725 F F F
