#comment
1.0
16.184 0.0 0.0 
0.0 16.184 0.0 
0.0 0.0 16.184 
Al Mg Zn 
210 15 30 
selective
Direct
0.9997474045476843 0.9981454254655835 0.5005475387522444 F F F
0.8748279617234369 0.7493464159345262 0.8723305596385825 F F F
0.8752319078350499 0.8743655831150828 0.7476975582578376 F F F
0.0054397358817680 0.1361170273206858 0.1250715585671555 F F F
0.7503924543723672 0.7493322793038113 0.7477295039704732 F F F
0.3741473063092441 0.1288724064203686 0.9974438124001062 F F F
0.5009586053513334 0.8744063256030558 0.8720957671263735 F F F
0.6255943594077079 0.7489230247933455 0.8720211003688457 F F F
0.4998409234196932 0.0002694959844898 0.9982024573233124 F F F
0.6249872138675884 0.1265626222539869 0.9986358467095096 F F F
0.6257618288116045 0.8741570807501026 0.7476577135349435 F F F
0.5007126568976085 0.7497157434571833 0.7477418109191961 F F F
0.2507591998229363 0.8731196846936776 0.8708708002936649 F F F
0.3761635778253353 0.7495483902540531 0.8713523276019441 F F F
0.8818504827292664 0.0024615612844680 0.1242622454166335 F F F
0.7540848567951600 0.1270186956582348 0.1248707850613630 F F F
0.3755328349884590 0.8747212810449571 0.7469567283376379 F F F
0.2506266881235615 0.7496570790126621 0.7473008965607320 F F F
0.1745774628357980 0.2526285120953263 0.0577494651995237 T T T
0.0000061064236450 0.8742317358064620 0.8723946693988581 F F F
0.1250272870517960 0.7495671901810678 0.8717539023979265 F F F
0.1250748839849783 0.8740534212574547 0.7468608729517721 F F F
0.9997263143372608 0.7496168627891344 0.7479425389546270 F F F
0.7501027619544226 0.6252857274654543 0.8726315896680061 F F F
0.4990757610626257 0.2465181188966092 0.0018127809290550 F F F
0.8754718191645349 0.5004765343610432 0.8728142281394945 F F F
0.8751861952200365 0.6252244033017496 0.7483144726776286 F F F
0.7502969458734398 0.5009286906083448 0.7480283152171819 F F F
0.7535323651931580 0.2487724680026235 0.9979397916425662 F F F
0.5003301485039936 0.6255940831881046 0.8721090158623922 F F F
0.8766879224388265 0.2492632077619306 0.1244411953141001 F F F
0.7538886627978382 0.3755039179019418 0.1248804824626965 F F F
0.9998640746261598 0.5020178285465166 0.9972537829087452 F F F
0.1250276060609809 0.6274957522468448 0.9964076060857957 F F F
0.1242986122235517 0.5073230015306438 0.1224290193773571 F F F
0.9994061976854434 0.6274921586549154 0.1219884358347066 F F F
0.2497093787284787 0.5047701131434380 0.9967851594879770 F F F
0.3753408440712509 0.6270651973856947 0.9969135910055161 F F F
0.3750377383202362 0.5069825335433042 0.1227398099527837 F F F
0.2501637883683128 0.6289852436518484 0.1224996013116861 F F F
0.4986875989656355 0.5019677521490877 0.9979100300122932 F F F
0.6260783918889630 0.6247560911029983 0.9970633448539947 F F F
0.6270001275681617 0.5027328728826933 0.1246629437964104 F F F
0.5016685524541076 0.6273146264173710 0.1228502735061774 F F F
0.7520492750779511 0.5006141479963565 0.9977693034355529 F F F
0.8748635926145266 0.6256269712337683 0.9967873102807837 F F F
0.8774104958476374 0.4997753561052178 0.1224500103937925 F F F
0.7513821554770033 0.6252521211747818 0.1225903751219898 F F F
0.9997670426668918 0.7492696630654437 0.9964087644070341 F F F
0.1241916837325837 0.8720031643157894 0.9967738270720419 F F F
0.1248111766256174 0.7495764458651991 0.1228277076171547 F F F
0.9991033470657127 0.8718983850659862 0.1232234592417578 F F F
0.2506336853502391 0.7500727493294288 0.9966291745817709 F F F
0.3775565379815520 0.8728293098056151 0.9973682878730953 F F F
0.3761676076458793 0.7492441587456633 0.1229558213166267 F F F
0.2506096802121633 0.8712321557159800 0.1243746090918685 F F F
0.5012449527394949 0.7492496825070283 0.9969090173769053 F F F
0.6248614821846945 0.8733934497264376 0.9970649469328853 F F F
0.6267271216644783 0.7485128059049495 0.1224400420370986 F F F
0.5014492547544260 0.8722592595822831 0.1225841787582705 F F F
0.7503084950133596 0.7492745053719491 0.9967759560119546 F F F
0.8760686751937404 0.8731001212509151 0.9975868106738383 F F F
0.8750838164198531 0.7489175101925404 0.1223811329389518 F F F
0.7517553056890508 0.8729658801702342 0.1235167489875957 F F F
0.6253636555541350 0.5011627784083104 0.8720152062179070 F F F
0.6256042865582155 0.6252626299280158 0.7479124719018414 F F F
0.1252706820411602 0.9974211389314448 0.3734007857018889 F F F
0.5005987120335368 0.5006296194110534 0.7476962029847627 F F F
0.2507328500086400 0.6264041617450877 0.8717543312357813 F F F
0.3748035940103445 0.5001989325801706 0.8727923716978490 F F F
0.3753293737631010 0.6247773037548346 0.7480969916930178 F F F
0.2502624683273162 0.5003212500324181 0.7477712379417035 F F F
0.9999878320449546 0.6254299054035590 0.8725592907214295 F F F
0.6289752940787798 0.1246334561014662 0.2442705182003626 F F F
0.1248402790574772 0.5034385476044361 0.8700956362706674 F F F
0.1250808864880263 0.6264789725643752 0.7470661011188239 F F F
0.7497514758707279 0.9972553620538791 0.2456093379389848 F F F
0.9998315775411856 0.5003583909125225 0.7480594457750396 F F F
0.8734872204521223 0.9950744577857196 0.3741270702382265 F F F
0.7521146734337539 0.3756275726568240 0.8727858355310248 F F F
0.8759111075301838 0.2503495972805355 0.8728250696761446 F F F
0.8751640898160956 0.3758998322134032 0.7483782256843199 F F F
0.1246966011543433 0.2460177161649232 0.3772220600423276 F F F
0.7501080612831043 0.2509006125121829 0.7476363109351091 F F F
0.4983227267694445 0.3746881147496617 0.8723651814075226 F F F
0.6253981135493536 0.2497473571271724 0.8713927990469007 F F F
0.6252571341993367 0.3761324551110302 0.7481519988061934 F F F
0.4997510882633053 0.2501824231890956 0.7475409427894897 F F F
0.2497193061231119 0.3750263802569606 0.8712664682497484 F F F
0.6270490024873646 0.3774380719183347 0.2492501906379525 F F F
0.3738444256645409 0.2500980112550787 0.8712005346659782 F F F
0.3754630381602982 0.3757825234419743 0.7466056952831114 F F F
0.2495787615907192 0.2504464643685926 0.7474943518686193 F F F
0.9994537695014675 0.3749674671057799 0.8735624421704384 F F F
0.8720909365942883 0.2539798632306510 0.3720469221289654 F F F
0.1272384752756726 0.2507218257147364 0.8776020415670858 F F F
0.9993369398941511 0.5044737868730450 0.2467657127815109 F F F
0.1250831537850751 0.6287892740950428 0.2489542747375690 F F F
0.1248055740190228 0.5058665778803398 0.3752444897928437 F F F
0.9995199171364911 0.6261759636228137 0.3743525783206729 F F F
0.2509465925936331 0.5070006309324553 0.2487824764132218 F F F
0.3766175414273409 0.6278854111765405 0.2490231285918974 F F F
0.3766854558809850 0.5027860261669572 0.3742638901469167 F F F
0.2508434276725572 0.6275961762171917 0.3755667243510201 F F F
0.5020237928846651 0.5021260382362887 0.2491833589983144 F F F
0.6259311496735441 0.6262620182456271 0.2493122262595842 F F F
0.6258460274808493 0.5016187687120631 0.3742258338098073 F F F
0.5010519311106254 0.6263312487911901 0.3744625085555091 F F F
0.7511764874258898 0.5008245303339250 0.2492695500992143 F F F
0.8747096884474190 0.6265818104061229 0.2486686752363488 F F F
0.8741031534715308 0.5019205337220958 0.3743279588594644 F F F
0.7502015292668968 0.6259273654172537 0.3750701871514089 F F F
0.9994073694479604 0.7491159090649604 0.2493489754518687 F F F
0.1247561370055646 0.8715756669472102 0.2500150347660958 F F F
0.1249869476184929 0.7495625643837167 0.3753642892620986 F F F
0.9999979076446855 0.8735306625684952 0.3749810922120109 F F F
0.2511105162463937 0.7494112940280685 0.2493867889288362 F F F
0.3746904344091722 0.8744099490218048 0.2490059467731706 F F F
0.3760073190401524 0.7497635546069558 0.3749314306156455 F F F
0.2500373534300177 0.8737398487490597 0.3749580809059698 F F F
0.5009843855594308 0.7498587106018746 0.2489472672033848 F F F
0.6267384282329816 0.8719824710061143 0.2492540178000981 F F F
0.6258056930463815 0.7485446023754272 0.3750802783863346 F F F
0.5007623889191829 0.8726797953640122 0.3754916779195497 F F F
0.7504055440074888 0.7486559248786609 0.2492493222565338 F F F
0.8748342105691316 0.8728898577546099 0.2487258158437882 F F F
0.8747452931543087 0.7493302049582541 0.3749107354149321 F F F
0.7497930303527638 0.8736338671088388 0.3746561640614692 F F F
0.7502418973907052 0.8736585399161797 0.8718768652113601 F F F
0.1247543983293268 0.1226915303654850 0.5013209561583887 F F F
0.1256285241017950 0.9988459608417470 0.6243896646577440 F F F
0.9999092419387172 0.1244231906468039 0.6254621066411776 F F F
0.2504262544654026 0.9993526208643703 0.4987638833323039 F F F
0.3751359809651731 0.1242016554440398 0.4965324658973267 F F F
0.3752839379601820 0.9995345295528417 0.6232812618622668 F F F
0.2507837263504750 0.1241880085999923 0.6237979470776465 F F F
0.5003657665733667 0.9992093554055241 0.4978417727274511 F F F
0.6240696235942985 0.1252722421296034 0.4999549267500435 F F F
0.6250672837432989 0.9990802706539612 0.6234660259350662 F F F
0.4997393602590440 0.1249276747538803 0.6231384068581490 F F F
0.7493280165518262 0.9982294365740478 0.5000674568117063 F F F
0.8742379892809798 0.1249650765197845 0.5018854798523575 F F F
0.8746521177622477 0.9985244557087998 0.6244833657662232 F F F
0.7493259761589885 0.1247362285715263 0.6240782023237915 F F F
0.9990145662877093 0.2498624316209536 0.5018289844746445 F F F
0.1240787908119998 0.3760553511210441 0.5032059045650774 F F F
0.1249030973270617 0.2496651899995752 0.6256002886666946 F F F
0.9992761021000511 0.3761923164893832 0.6249906705139392 F F F
0.2507130441493461 0.2484700379498062 0.5012785033317483 F F F
0.3771653739394901 0.3754752173189828 0.4989234001099498 F F F
0.3761588629707783 0.2499104923332844 0.6236632781815106 F F F
0.2506923824616135 0.3760451222241711 0.6235514913050885 F F F
0.5000327550129361 0.2503762953646906 0.4967992840610705 F F F
0.6251046250974095 0.3760562499099861 0.4980692180767034 F F F
0.6245934906670333 0.2509053476116906 0.6238910918284155 F F F
0.5006262013582317 0.3756905840332444 0.6234517902364769 F F F
0.7491667124763373 0.2519025094451359 0.5000991274406130 F F F
0.8739341065664747 0.3764060339648749 0.5000321203963466 F F F
0.8748532443264360 0.2508455212985756 0.6257577896954816 F F F
0.7496751036083794 0.3767239469873874 0.6238704996441475 F F F
0.9992778784645406 0.5016753713299281 0.5004293536118283 F F F
0.1249097356958277 0.6270575965184196 0.5009976858959191 F F F
0.1250967728631698 0.5010425269987362 0.6249227453831300 F F F
0.9997906390470456 0.6255969786336718 0.6243383994515979 F F F
0.2504584455233823 0.5018998478033835 0.5007842939708214 F F F
0.3757508282743175 0.6260327559305793 0.4992743827304957 F F F
0.3759244466140320 0.5006831354058970 0.6239630474801234 F F F
0.2507746078704362 0.6259034144949857 0.6241447143085795 F F F
0.5009553229061703 0.5009366054491828 0.4990468314891268 F F F
0.6256153254123071 0.6253037807861925 0.4998952208731001 F F F
0.6252245727637611 0.5003153920364251 0.6235239961451273 F F F
0.5003921120901447 0.6254963134387265 0.6244443307142952 F F F
0.7499639963917366 0.5010506322185780 0.4990967100718139 F F F
0.8749505447055586 0.6259620945525997 0.4996785899167840 F F F
0.8745500460999276 0.5010043766933362 0.6242964355206667 F F F
0.7499289692089445 0.6252196847935918 0.6239308256102709 F F F
0.9996167922046330 0.7494728381782468 0.5000309516156251 F F F
0.1251791487719121 0.8741072745748024 0.5000868805824089 F F F
0.1253403574656630 0.7501629441392274 0.6238369937598085 F F F
0.9998346315437328 0.8738684311402234 0.6239877801599137 F F F
0.2506892389897621 0.7501298619449183 0.5000411199283595 F F F
0.3755444173861090 0.8742030587743876 0.4993925880790489 F F F
0.3759114788267896 0.7494353409823167 0.6239686114123391 F F F
0.2508646329029769 0.8747582621443609 0.6237396225693663 F F F
0.5009262125787637 0.7493949591358934 0.4994466944428162 F F F
0.6255390627803556 0.8740335378888087 0.4995689353190517 F F F
0.6256278243225881 0.7495022723915912 0.6235944514274221 F F F
0.5006355005387737 0.8746594518002194 0.6237931433128189 F F F
0.7501112015088430 0.7495261562093116 0.4995309282344673 F F F
0.8746308596313590 0.8735119622740626 0.5000990697315145 F F F
0.8745862438927033 0.7493673416532588 0.6242802827048928 F F F
0.7497290758675320 0.8742779415094626 0.6238966987316505 F F F
0.0001206380217945 0.9988627488996743 0.7474257603911324 F F F
0.1251016584839109 0.1248870471988374 0.7480338367799479 F F F
0.1240229833709086 0.9982794841732122 0.8707513762657858 F F F
0.9993135514954338 0.1246042154542816 0.8717109264141442 F F F
0.2503199962075822 0.0001990298216629 0.7482730837777652 F F F
0.3754582120351841 0.1248062753499236 0.7468418943838872 F F F
0.3771273072145431 0.9988880729829860 0.8704002529552406 F F F
0.2508317863625115 0.1276957418486539 0.8723718394101324 F F F
0.5008639514908146 0.9991368599509406 0.7468501625065592 F F F
0.6249313970010362 0.1245477928177392 0.7471123979702121 F F F
0.6243398306328001 0.9997512698830833 0.8718193722862347 F F F
0.5002111962888233 0.1246403997123861 0.8726387661973827 F F F
0.7500389479052607 0.9990753060892420 0.7478477928608123 F F F
0.8751362709791554 0.1250069736706899 0.7476017756018462 F F F
0.8764494062648470 0.9992773022262819 0.8712039542959897 F F F
0.7506316151787986 0.1255268235173287 0.8711542308975411 F F F
0.0012764337756297 0.2507122902615052 0.7494313630045892 F F F
0.1247605541119211 0.3754594257019167 0.7480847017680170 F F F
0.1215524482180451 0.0019007779527307 0.1252081149168497 F F F
0.2520745057439867 0.9994292530867545 0.9974058075551234 F F F
0.7514837483394056 0.0009920847138248 0.9994333876238075 F F F
0.0131387713366979 0.3651505479801110 0.1217962113318683 F F F
0.5023886470792626 0.0007303478393943 0.2497259366203164 F F F
0.5032014832259274 0.2473455695236254 0.2482220940654039 F F F
0.2476961720751110 0.3749559822327748 0.3741891803752455 F F F
0.3672008826781166 0.3676866885000808 0.0061191111058321 F F F
0.3749396886707962 0.3732832863999609 0.2419552415075006 F F F
0.2333852489696495 0.2494149288389442 0.2335753837919275 F F F
0.0010639812162979 0.3747623058864730 0.3705254913377187 F F F
0.6246425417559508 0.3740656819457531 0.0000415990409257 F F F
0.9960596029604828 0.1240465030341881 0.3708515744524137 F F F
0.7506183726066644 0.1252673047508572 0.3716649881734119 F F F
0.3689581079508171 0.1232763869179377 0.2513883048250085 F F F
0.6268042024069841 0.9975910073344244 0.3751654199508118 F F F
0.5023587678576613 0.1246069638119835 0.3766597837555969 F F F
0.2460190874357458 0.1238762229318462 0.3763511559402182 F F F
0.3739350157535012 0.9964242848495251 0.3762101848761052 F F F
0.8747313852199429 0.1233197805075883 0.2463654481674294 F F F
0.2487957186276629 0.9961811693078683 0.2492070628289385 F F F
0.0050852219642764 0.2493860031760595 0.2499279682460873 F F F
0.1226847129219869 0.1193995439350274 0.2511944052626530 F F F
0.9980024703305251 0.9952475871144663 0.2503450496621370 F F F
0.8772911170193136 0.3748396815399868 0.9991496408669266 F F F
0.5029044364917781 0.3782900763558815 0.1234099434986020 F F F
0.6294610505321607 0.2499623792555498 0.1229138408742605 F F F
0.1255767400020313 0.3857163237226114 0.2510836895283926 F F F
0.2415422790253300 0.3877981988678736 0.1251871566462232 F F F
0.3732958311825295 0.2412496529622146 0.1219983571043885 F F F
0.3734790271450945 0.2504196879847114 0.3764196291390565 F F F
0.6266762276342148 0.2525878444812755 0.3751228477860826 F F F
0.5013626488141409 0.3769802848563024 0.3743530661071404 F F F
0.1260865012530356 0.3875673501554678 0.9884606341978777 F F F
0.0005271818932424 0.2466405978225198 0.9951067099212118 F F F
0.8771355475201614 0.1246465090444147 0.9975692624961227 F F F
0.7491822167543043 0.2533964172821564 0.2490073218418043 F F F
0.5024993691157388 0.1209806602886743 0.1214515675277802 F F F
0.6260891308543218 0.9975216489142954 0.1217037975798120 F F F
0.2506824627371589 0.1206148811113339 0.1195994559845027 F F F
0.3763548739564172 0.9965605038449789 0.1224717318424286 F F F
0.8759582411574416 0.3768549045258373 0.2466534446550403 F F F
0.7504517474736511 0.3773284655501306 0.3742209792270358 F F F
0.1216224533681530 0.1174105777961893 0.9912727965320848 F F F
0.9986297740667396 0.9984858587861597 0.9965269326389515 F F F
