#comment
1.0
16.184 0.0 0.0 
0.0 16.184 0.0 
0.0 0.0 16.184 
Al Mg Zn 
215 10 30 
selective
Direct
0.0000680833624970 0.9998145241102024 0.5025944167026832 F F F
0.7501593096111303 0.7474935395288361 0.7483491947630134 F F F
0.5007973310955448 0.8747940618215758 0.8750339149976732 F F F
0.6240871716944550 0.7490517052612333 0.8748259371224947 F F F
0.6243335778216100 0.8746554776760699 0.7491130792680858 F F F
0.3750537787475122 0.1250545402963548 0.0001595812616509 F F F
0.3757997461984069 0.0002974760945937 0.1253133725666228 F F F
0.2492141586051107 0.1248020607937275 0.1255542744870716 F F F
0.4999387681413737 0.0002670193510032 0.0004479216276108 F F F
0.6249383505689129 0.1249745694857956 0.0000638809371029 F F F
0.6226222238339967 0.9997298827101718 0.1252105998228225 F F F
0.4993399190992652 0.1252384534598521 0.1252550186648284 F F F
0.4999839814709537 0.7492678798388394 0.7496282385284758 F F F
0.3762820675166796 0.7489837955404270 0.8747731677517081 F F F
0.3759189452905192 0.8744494812857042 0.7500156933956292 F F F
0.2506336688363298 0.7485434276572669 0.7507965697214594 F F F
0.9969072699782910 0.7464522873831487 0.7522813934516414 F F F
0.1248852880263869 0.3747369125971877 0.9990355659763919 F F F
0.1282364540503772 0.2535239897933025 0.1249426524125914 F F F
0.9998434204878126 0.3745472104737428 0.1243666558379138 F F F
0.2514616628646682 0.2512539216719885 0.9984368088048741 F F F
0.3758434068808786 0.3756852987102480 0.9999588675807414 F F F
0.3754610745915287 0.2504814650260509 0.1252609039313336 F F F
0.2514011705153189 0.3763726518304469 0.1253446073992876 F F F
0.4998648955124053 0.2503838629932172 0.0001167605809306 F F F
0.6242363943178270 0.3754407635742892 0.0004029507588317 F F F
0.6232580216659463 0.2508488429123915 0.1252648205209555 F F F
0.4995032390040318 0.3755966144354198 0.1258455366422581 F F F
0.7491340793783298 0.2506946518236142 0.9987690772715094 F F F
0.8755594103617916 0.3730252865359849 0.9997780703951200 F F F
0.7502408004546014 0.6241761824468864 0.8740420750061616 F F F
0.7495538389066966 0.3759969487665280 0.1248390820049605 F F F
0.0000380819045773 0.4988685352212738 0.9997265299522967 F F F
0.1245840280514776 0.6236307704488224 0.9992522357456447 F F F
0.1253285911076553 0.4988832865686535 0.1251206642143047 F F F
0.0019288076271060 0.6228118583555337 0.1237477266364070 F F F
0.2500565072084378 0.4998655499563129 0.0001069188520811 F F F
0.3755759224857909 0.6238843755690863 0.9999350398717417 F F F
0.3756599491311999 0.5003563502097659 0.1255749419947072 F F F
0.2499461077756311 0.6247155584704495 0.1251789727567352 F F F
0.5000608742272700 0.4998840042890243 0.0001709713970115 F F F
0.6239987891630214 0.6234254204690070 0.9998983632731758 F F F
0.6243826931126087 0.4999384652057257 0.1257747907569834 F F F
0.4996530605621794 0.6246493166492944 0.1256658474426633 F F F
0.7499327310553249 0.4989458367347148 0.9997138840951211 F F F
0.8755216177218246 0.6224634397224842 0.9986743768153614 F F F
0.8749817875396310 0.4993521217381389 0.1247679719112403 F F F
0.7496104155540767 0.6233619154127275 0.1249153878926801 F F F
0.8747759535631052 0.4983370864065431 0.8747922406725588 F F F
0.8741059002539519 0.6224366282345457 0.7501719227119770 F F F
0.7489117767724931 0.4988945913077382 0.7495481251769408 F F F
0.5000677749711439 0.6243023888755364 0.8743778029460119 F F F
0.2495715676343082 0.7479867663519977 0.9973477922318974 F F F
0.3766654894319827 0.8751893076540740 0.9991117290912733 F F F
0.3752791274667205 0.7491700706060899 0.1247469539974160 F F F
0.6246497497801385 0.4996008740652162 0.8745950934122262 F F F
0.4999121623964581 0.7490401941870439 0.0002311339213732 F F F
0.6233112504009505 0.8752467953749429 0.0010589629016603 F F F
0.6238088870369942 0.7493395604803069 0.1254914872484110 F F F
0.4989097559180828 0.8748688875283712 0.1255745176617172 F F F
0.7482312851842838 0.7478590022041506 0.9992601259119750 F F F
0.6243218998907645 0.6239825675557372 0.7494120060368248 F F F
0.5000274945206220 0.4996942796798669 0.7494120228762665 F F F
0.2502107417161620 0.6231276314031552 0.8746385468233266 F F F
0.3756547949553564 0.4997135350869794 0.8744234474715284 F F F
0.3751294209043008 0.6243078981428496 0.7498336036564460 F F F
0.1274282556494184 0.0001082140755129 0.3806058163418838 F F F
0.0008563026127219 0.1256466389064443 0.3775363432201617 F F F
0.2470922383989861 0.0010364857079058 0.2519903199095393 F F F
0.3746854202544384 0.1252885978930740 0.2504226363543897 F F F
0.3747438046650048 0.0001265993541452 0.3765829595184107 F F F
0.2505691217317062 0.1256273621849665 0.3771403673488686 F F F
0.4989409160904569 0.0001258223166604 0.2510687978180713 F F F
0.6235302307026437 0.1257459093235791 0.2500121871204267 F F F
0.6225291478266730 0.0003004479493129 0.3764785296674790 F F F
0.4988081924892594 0.1259271554111606 0.3758457026875973 F F F
0.7444408238142322 0.9997321804785757 0.2499886099174359 F F F
0.2502754360384522 0.4995016094607315 0.7494921719393289 F F F
0.8750010657799397 0.0001184107039682 0.3795948540604361 F F F
0.7478917032942480 0.1255048338369378 0.3772284733796882 F F F
0.0012125597654546 0.2527343090100090 0.2517843015900914 F F F
0.1256272766133092 0.3768841351683500 0.2509401330072107 F F F
0.1257461371666778 0.2511605652601052 0.3770049762038969 F F F
0.0000015487172487 0.3763800193428773 0.3762744167793313 F F F
0.2512676951048545 0.2513439213711919 0.2512801957260251 F F F
0.3755882032704723 0.3757223831697215 0.2510286910889310 F F F
0.3750045089825618 0.2506658941843612 0.3763468856874373 F F F
0.2504145087658388 0.3756233151025397 0.3758492032403631 F F F
0.4991614164498049 0.2505071372710439 0.2507440964041933 F F F
0.6238594681997636 0.3762390648127349 0.2504234967208093 F F F
0.6234124195691242 0.2506995698998247 0.3758027681372622 F F F
0.4997593195692845 0.3756778599921169 0.3757707081165882 F F F
0.7470174044808585 0.2528356812495683 0.2507458547056470 F F F
0.8742992491623744 0.3752164218024954 0.2501195127155596 F F F
0.8742457800129412 0.2514362584978814 0.3768605404432697 F F F
0.7488698964822390 0.3759003583842651 0.3755372368115306 F F F
0.9997117829822040 0.4995400183526499 0.2500459031481077 F F F
0.1255991525097837 0.6231264041119294 0.2506051628706024 F F F
0.1256565852091756 0.5001451040333581 0.3762997051272054 F F F
0.0001575432782199 0.6241970510479667 0.3759539147410637 F F F
0.2510124803223978 0.4999181133252088 0.2508361389089669 F F F
0.3754900604653780 0.6243666568430566 0.2510489717301668 F F F
0.3751322066155531 0.5000053676260251 0.3760558852393110 F F F
0.2504798714369186 0.6241547592152291 0.3768301879733736 F F F
0.4997044143078019 0.5001937311769012 0.2509162839651991 F F F
0.6238686311850534 0.6242991824344531 0.2506931424289762 F F F
0.6243747220815219 0.5002219840523912 0.3754282318948190 F F F
0.4994884739731788 0.6245503169687058 0.3758013403025564 F F F
0.7496185184549906 0.4997198308099973 0.2506332242225640 F F F
0.8754488667869601 0.6249123898554186 0.2498341090882418 F F F
0.8744021755612745 0.5000460429968567 0.3751766577250356 F F F
0.7493054272204684 0.6241748666778993 0.3760156520824290 F F F
0.0039529370142358 0.7503048022062400 0.2503950589290277 F F F
0.9990941868919587 0.6239348555025129 0.8757305458620964 F F F
0.1260008304466345 0.7482920346165888 0.3776554898567817 F F F
0.0017440265854136 0.8736940240623293 0.3794940710980712 F F F
0.2503464587245477 0.7477147153946441 0.2520499060658886 F F F
0.3747981237441639 0.8750459542355875 0.2512171745669809 F F F
0.3749860230812439 0.7493796399713116 0.3765775127855908 F F F
0.2507851060553521 0.8742841232122829 0.3772355959731037 F F F
0.4989556695482348 0.7493184711909970 0.2507824014241902 F F F
0.6229431367786602 0.8742619816418560 0.2505977394190573 F F F
0.6235870561910501 0.7494807875602223 0.3756418552901648 F F F
0.4990802816349675 0.8743062522619958 0.3761748176072381 F F F
0.7478509519490888 0.7482403649319741 0.2505435209155200 F F F
0.1249927979003135 0.4989764519748438 0.8747703987670138 F F F
0.8750280328599280 0.7485469968791014 0.3767042199304821 F F F
0.7479892408083948 0.8745287805523742 0.3773061716200221 F F F
0.1250109679480068 0.6233104450404394 0.7503057031400511 F F F
0.1251766352348047 0.1253734243441329 0.5020983129343424 F F F
0.1243637472935093 0.0002001470158159 0.6268361579410947 F F F
0.9999455588998358 0.1253061127873691 0.6258885351650715 F F F
0.2508741293345058 0.9996853959637159 0.5023180763163027 F F F
0.3753372383882577 0.1257551930251761 0.5011740411464087 F F F
0.3761534257488758 0.0000043890478029 0.6249850679306159 F F F
0.2500102384049944 0.1254579855590945 0.6252825697143326 F F F
0.4993270679914188 0.9998891213185142 0.5003175032648145 F F F
0.6237159774968990 0.1259259287963971 0.5003290365996523 F F F
0.6236558020361310 0.0001316083614770 0.6238392810426739 F F F
0.5000302807315637 0.1256760602164758 0.6248196929774172 F F F
0.7489328388039741 0.9999323793970951 0.5011895184257804 F F F
0.8746913165311700 0.1255890230922391 0.5015007792472426 F F F
0.8746679602523998 0.0004400651220969 0.6257571142059297 F F F
0.7496039323171343 0.1258648270025220 0.6243183601236623 F F F
0.9999218172481016 0.2506713517501081 0.5007459707927122 F F F
0.1256110420400809 0.3755686149530558 0.5007218682874833 F F F
0.1247706509848975 0.2502891611764049 0.6252003241510824 F F F
0.9998409067823011 0.3752102670808791 0.6249861128196278 F F F
0.2504415272701500 0.2507837175484788 0.5009319761407898 F F F
0.3751887443789207 0.3755645926934472 0.5006298033113417 F F F
0.3751272722181929 0.2501081841666658 0.6252216134131376 F F F
0.2504486924439276 0.3752034842135013 0.6250058106886239 F F F
0.4996390691316529 0.2508809929504578 0.5007080888706541 F F F
0.6244862565679676 0.3755609679560527 0.5000348069718114 F F F
0.6245873529213065 0.2503656953026458 0.6248694620432446 F F F
0.4999995171499579 0.3752941578295884 0.6245082601755050 F F F
0.7489646306163316 0.2508747252719163 0.5005061792658453 F F F
0.8741229339782520 0.3755053856551350 0.5002786375434232 F F F
0.8748803339884407 0.2503476326648485 0.6247742424029107 F F F
0.7495053886832149 0.3750764079907039 0.6247964298243511 F F F
0.9997559476066848 0.4999891136322362 0.5005169308983448 F F F
0.1252726444558106 0.6246597487159925 0.5016376628369544 F F F
0.1253583879236823 0.4995182649822264 0.6248190579300344 F F F
0.9997224660918017 0.6239186970553200 0.6256100467296467 F F F
0.2506280626468688 0.4999472613845242 0.5007381395684223 F F F
0.3752187818479483 0.6247814024615979 0.5009855502324625 F F F
0.3753676920216197 0.4999452452339013 0.6249857062086704 F F F
0.2503079735206238 0.6242393573111025 0.6250610503111732 F F F
0.4999486741940821 0.5002137669579294 0.5001970530468030 F F F
0.6244055728053137 0.6247890895233447 0.5000590544861553 F F F
0.6244625794364715 0.4996933070414658 0.6244369600983083 F F F
0.5000411351988147 0.6247681874453268 0.6250107064610622 F F F
0.7492089733633179 0.4998180638666249 0.5001760514565836 F F F
0.8744343083174357 0.6242700051459444 0.5007318551331245 F F F
0.8743704337917276 0.4996678468921605 0.6249340214175414 F F F
0.7489025266652616 0.6234261325528883 0.6239945772365165 F F F
0.9998594508924326 0.7487458140861227 0.5017654404726881 F F F
0.1254592385935732 0.8743063338060997 0.5028365847377412 F F F
0.1241390965426421 0.7496399083466561 0.6265491667967354 F F F
0.9986034829248408 0.8749476517550125 0.6268293158279641 F F F
0.2502630824499641 0.7493675959170651 0.5017395565550961 F F F
0.3747503599627487 0.8742117483108937 0.5017783072902131 F F F
0.3751331548497028 0.7495550893247009 0.6253913019996329 F F F
0.2489024670979908 0.8745600836023663 0.6271704248655654 F F F
0.4997412881646419 0.7492587059627329 0.5006115747221047 F F F
0.6243487623660184 0.8742842628972531 0.5007289541668967 F F F
0.6246539316235161 0.7493571690070971 0.6243509827169328 F F F
0.5000636869175141 0.8743112349423573 0.6250617493676064 F F F
0.7491968295092463 0.7491559222601801 0.5005550004357422 F F F
0.8745580635513441 0.8746368673135504 0.5017346517295719 F F F
0.8740828576161720 0.7486487932096247 0.6246242348539649 F F F
0.7508823277800936 0.8748102895976254 0.6261314965542305 F F F
0.0000714183461755 0.4988851484561877 0.7501397957696145 F F F
0.7496832856944169 0.3750674866360611 0.8746882683093606 F F F
0.8747730557385207 0.3748588937472506 0.7497208800728991 F F F
0.7497581382938295 0.2499904499102135 0.7499163323865434 F F F
0.2524247155584843 0.0008617236555125 0.7492643386298214 F F F
0.3760805559394537 0.1253879192643763 0.7502738557393788 F F F
0.3768493231011204 0.0001058478214368 0.8749099745765117 F F F
0.5004777447634129 0.3756296922897975 0.8746111013231336 F F F
0.5001142349354186 0.0000665921857018 0.7498370723907910 F F F
0.6244214096751347 0.1254679954405400 0.7499912593070241 F F F
0.6234430161979770 0.0010327109522980 0.8752201770311550 F F F
0.4999464657038633 0.1252909008682179 0.8751415458758031 F F F
0.7493462387818506 0.0019597402749092 0.7470886314900983 F F F
0.6239973680329962 0.2502755059637227 0.8748701189322445 F F F
0.6244526947838217 0.3751092222699837 0.7495075611710640 F F F
0.5000127284525867 0.2506197874340506 0.7496409846087992 F F F
0.0000315805346296 0.2495795586165298 0.7505424257532498 F F F
0.1252770890351827 0.3752146283249659 0.7497518225160270 F F F
0.2507472520975435 0.3763145341260176 0.8745660392739446 F F F
0.9996208516152588 0.3742719332602860 0.8750144973712064 F F F
0.2503540667343188 0.2506344268822938 0.7499530329839443 F F F
0.3754464855166801 0.3753183960815436 0.7494448910582321 F F F
0.3764403339189253 0.2509376866308896 0.8744600032803462 F F F
0.7545702965715400 0.8755707306572861 0.8748723079951646 F F F
0.2444493846233354 0.8744428168209218 0.1233119342786960 F F F
0.1231041372566603 0.1213253652453842 0.9907371125275316 F F F
0.0036537419886597 0.1249696212437827 0.1227644798389578 F F F
0.8765807931157349 0.1180090557220379 0.9949132301193411 F F F
0.1180814951611294 0.8752119347838266 0.7629649134113378 F F F
0.8741477200905945 0.8767252940495487 0.2488152117851442 F F F
0.8797976498478007 0.7535808902006066 0.1187867458454795 F F F
0.0086807450258790 0.9962487841104563 0.2476830896302660 F F F
0.8714433360185970 0.1244536149052495 0.2471144402514303 F F F
0.1263364083061563 0.2530478168999953 0.8722864031326307 F F F
0.1279311948078355 0.8704667674631085 0.2540227697783654 F F F
0.9983370962389497 0.0018685071391041 0.7486158988104868 F F F
0.1270344715004579 0.1287034696395435 0.2531460074715331 F F F
0.1254739587739328 0.1268383872901411 0.7501982448372085 F F F
0.7468102218878107 0.8741104627522351 0.1234459733805808 F F F
0.8739337923484127 0.2508487208562835 0.8730765623717689 F F F
0.8758240419457521 0.8836184506876942 0.0000039977502346 F F F
0.1387732853170905 0.0053414622167124 0.8694025295597000 F F F
0.0084803023767455 0.8812310498749982 0.1121392562214273 F F F
0.7481353650758190 0.1252551752967417 0.8735653837479536 F F F
0.1295814635984738 0.8753131393464341 0.9900023916989817 F F F
0.0035345510487730 0.7562894841245923 0.9927082927488261 F F F
0.8729064167588159 0.2520706163396507 0.1235632783329164 F F F
0.0003908670487466 0.2502308634970469 0.9964466834037498 F F F
0.9989193125736197 0.1234546782953298 0.8680842546940505 F F F
0.1242997542040564 0.7441772506482516 0.8752492674756898 F F F
0.0026231092308366 0.9393503118697600 0.9169139361047007 T T T
0.7459165958594007 0.1264726208129278 0.1230152789566820 F F F
0.8704091773459215 0.9981794418222552 0.1243758817435723 F F F
0.2543453632337477 0.1273913021799214 0.8733288446922234 F F F
0.2548849401478440 0.8737045674476094 0.8749771569903995 F F F
0.7462557871842531 0.9996726103217466 0.0012754531871212 F F F
0.2534209068281578 0.0002062542547976 0.9989323458600514 F F F
0.8746211526227310 0.1278440807908446 0.7485226197945077 F F F
0.1286585755909855 0.0008625721144177 0.1205358407936934 F F F
0.8689520796143346 0.0034358709725186 0.8642014444472946 F F F
0.8805558380626491 0.8731381099718600 0.7519669467383595 F F F
0.8773747311754171 0.7500768889677960 0.8770291415249447 F F F
0.1226900614105909 0.7467088547317833 0.1232806846105878 F F F
