#comment
1.0
16.184 0.0 0.0 
0.0 16.184 0.0 
0.0 0.0 16.184 
Al Mg Zn 
193 31 31 
selective
Direct
0.7493768295607738 0.8745333552501459 0.8725663098484299 F F F
0.8735209347785737 0.7504882927378423 0.8722001979712890 F F F
0.8736834104252043 0.8739419820991836 0.7493528338419762 F F F
0.7499321627025392 0.7500508773785903 0.7490241704967365 F F F
0.4995888733349785 0.8747415963203561 0.8726243432673989 F F F
0.6255890434110505 0.7505969460461238 0.8724688788886322 F F F
0.6253582241932144 0.8744521236914544 0.7493454796562864 F F F
0.5002928159404766 0.7510597072427672 0.7491519764717813 F F F
0.2496557909524461 0.8736064243329601 0.8724078390005927 F F F
0.6268951310780210 0.1258372140379718 0.9978486727473594 F F F
0.6291858965212134 0.9992181300055186 0.1232032602088405 F F F
0.3750133969391772 0.7506430638709436 0.8724092879348369 F F F
0.7488847661689870 0.9992948757640232 0.9973313601642562 F F F
0.8706731871180474 0.1228113785359074 0.9974223999335967 F F F
0.8705734714218480 0.9964080064050793 0.1231922180673107 F F F
0.7497535532004961 0.1243654395636278 0.1223520866825485 F F F
0.3749204344678504 0.8747671127800952 0.7487936462024425 F F F
0.2499973384462569 0.7501369503710499 0.7481237380568778 F F F
0.9985636442330997 0.8743240210949100 0.8724056555213310 F F F
0.1244638298056202 0.7496590354155753 0.8708614261989636 F F F
0.1243905714979662 0.8741872924910120 0.7500151795064344 F F F
0.9993484241859598 0.7492230572229702 0.7487883597829307 F F F
0.7494505517975814 0.6265508737642664 0.8722007167387530 F F F
0.8739072363655783 0.5008574035187748 0.8711986381079362 F F F
0.8744857916329749 0.6260497358387566 0.7481837425426703 F F F
0.6286358447211940 0.3765692131846867 0.9947795202088993 F F F
0.6281527204600261 0.2495987947582367 0.1217520653200730 F F F
0.7506707302701916 0.5012136509768876 0.7491694050044895 F F F
0.7494119663620845 0.2500566993209968 0.9974767804355735 F F F
0.8706293790094893 0.3755201098634547 0.9974021947075480 F F F
0.8690215133733049 0.2502106490521352 0.1235410253285982 F F F
0.7478250508028905 0.3759244140596552 0.1224131874295962 F F F
0.5005980715960455 0.6271093264373861 0.8726048679881300 F F F
0.1246609093339700 0.6294924199838732 0.9969011681570035 F F F
0.6250350773278853 0.5014278061004683 0.8724329172927404 F F F
0.9983899641124416 0.6312072794050853 0.1226691436191490 F F F
0.6257037583441926 0.6266090371685714 0.7493424159015005 F F F
0.3769664078614793 0.6292102587640518 0.9969701478467683 F F F
0.5008071742434337 0.5006680497109506 0.7499106742112503 F F F
0.2497521577041697 0.6309916065149367 0.1233816966824203 F F F
0.2500788536484486 0.6265241871481311 0.8697244357951248 F F F
0.6258856591537347 0.6266772104836753 0.9973978113548729 F F F
0.6279229908859992 0.5035802276623296 0.1224955274159055 F F F
0.5035137651180629 0.6292135010956681 0.1231226090698627 F F F
0.7499485502225455 0.5014024283657832 0.9967041040914104 F F F
0.8724386749998182 0.6274639951092129 0.9973169724635321 F F F
0.8687479905129774 0.5017995099082787 0.1227344705899679 F F F
0.7491867101876744 0.6274551990322603 0.1231842051255197 F F F
0.9985634522996704 0.7499649152690431 0.9965587721193163 F F F
0.1234518735850171 0.8706097261000748 0.9949436351073652 F F F
0.1240672501705939 0.7522183284131319 0.1226235713945444 F F F
0.9963873280373685 0.8721639822218515 0.1225719713335148 F F F
0.2500388378567608 0.7500916240924319 0.9966144488855229 F F F
0.3740974208036588 0.8731167227438573 0.9977961232031572 F F F
0.3757006539779798 0.7503771844639522 0.1221327076862448 F F F
0.2505491948547757 0.8716196082647923 0.1215783376071756 F F F
0.5008615758989577 0.7510883227377370 0.9974404207277536 F F F
0.6261321886384437 0.8738187279333943 0.9980276206293599 F F F
0.6267381064682293 0.7504823155286992 0.1232042234392757 F F F
0.5007236673258805 0.8709970921210818 0.1232758220456004 F F F
0.7495959607173113 0.7504376481974137 0.9973491346064174 F F F
0.8732480372557305 0.8740562782587697 0.9973750208527569 F F F
0.8727094610001325 0.7507579276728216 0.1229927172340049 F F F
0.7495035974514679 0.8731577756488957 0.1233223623286462 F F F
0.3771099474141633 0.5015240151817252 0.8716303954156838 F F F
0.3752473096991244 0.6267458466492829 0.7488747620157609 F F F
0.2501043449435963 0.4983906739322944 0.7455162423932372 F F F
0.9990213675464823 0.6267070820688270 0.8712264281766637 F F F
0.1247182059249654 0.5016675778275709 0.8687077714688587 F F F
0.1250438309891410 0.6247160124572396 0.7467714693587378 F F F
0.0004302167498450 0.5001591619610982 0.7462820364587197 F F F
0.7500299979907148 0.3757203779219848 0.8714742609857341 F F F
0.8712470536004332 0.2498564895056286 0.8723974678452600 F F F
0.6311911442499406 0.1228375898166119 0.2503003054940727 F F F
0.6279643199360092 0.9970350422743914 0.3767315797312202 F F F
0.8743723129371326 0.3755684819729466 0.7476650907669071 F F F
0.7485470474214275 0.9969382122675234 0.2497489694667989 F F F
0.8652539294567910 0.1228058664851969 0.2489961255616126 F F F
0.8710649415081394 0.9968270586706692 0.3736988400521943 F F F
0.7507890451099473 0.1230730304513331 0.3764654725595374 F F F
0.7500956791335744 0.2498608611020466 0.7484054994151876 F F F
0.4997934523139911 0.3762454433678779 0.8737680349261518 F F F
0.6268284446847096 0.2502626814686910 0.8729346071338603 F F F
0.6265357921210120 0.3755087516899317 0.7505370311421768 F F F
0.5024441034741062 0.2504503466611442 0.7533695110299939 F F F
0.2516421118940668 0.3746828242727507 0.8688795641162714 F F F
0.3757772846833817 0.2514229984455391 0.8754965468956823 F F F
0.3739289093446799 0.3758530473670953 0.7470343712002954 F F F
0.2503768234995211 0.2519125111842780 0.7474624202217403 F F F
0.6303070471886696 0.3782143099680669 0.2493291207216889 F F F
0.6344080145448657 0.2501904342497888 0.3757401052221434 F F F
0.0000281574517893 0.3760860397416325 0.8682980656288969 F F F
0.7482865565164392 0.2509273967711227 0.2482370753128611 F F F
0.8686595724695338 0.3765760166748301 0.2475585049916388 F F F
0.8688772800070805 0.2502457914482945 0.3753652577801829 F F F
0.7515325111959935 0.3771819977614079 0.3748697310413830 F F F
0.1256388307451340 0.2488879800308750 0.8692417415174447 F F F
0.1237102140313088 0.6313126942918315 0.2477639040719368 F F F
0.1272338296213142 0.3761779869820601 0.7439430350043534 F F F
0.9975955797925335 0.6276356402634066 0.3751567549791077 F F F
0.9948209942083099 0.2493169647685104 0.7530996892847978 F F F
0.3770829165600980 0.6351685983385268 0.2487465406642877 F F F
0.7490407598261519 0.1248852024967392 0.8724739317522899 F F F
0.2497883244187757 0.6312521059046001 0.3757215124800946 F F F
0.8733111842860919 0.9993513405686515 0.8726297882621949 F F F
0.6272077387228787 0.6274082510609488 0.2488241657519031 F F F
0.6283789071732835 0.5026869252248135 0.3732172561747483 F F F
0.5033383901181919 0.6298035956722517 0.3734884376829176 F F F
0.7500022247941437 0.5027511632761913 0.2490474610106969 F F F
0.8720828614549493 0.6279756486112517 0.2486479367759161 F F F
0.8725947383764356 0.5026384978140062 0.3753107452883669 F F F
0.7502683252617822 0.6269923900120649 0.3747713070407743 F F F
0.9973159539558974 0.7501020865090021 0.2490790996179345 F F F
0.1220547534463863 0.8697819119576878 0.2494147178496042 F F F
0.1229387353924975 0.7486921790867417 0.3750661251774621 F F F
0.9977620792222709 0.8719808778784377 0.3734201374357813 F F F
0.2491649342052433 0.7520143165844019 0.2485204166531064 F F F
0.3771379329694132 0.8690530783208542 0.2503364262403711 F F F
0.3767786548921979 0.7497651202353450 0.3766336597238175 F F F
0.2498185846141762 0.8664799004919711 0.3762297985721120 F F F
0.5030910802778806 0.7516665075221346 0.2496199290878234 F F F
0.6274833709630340 0.8725172055374397 0.2492840831463251 F F F
0.6272183496222574 0.7503146464709050 0.3749112100002032 F F F
0.5028476151462621 0.8722881186219428 0.3769287527066844 F F F
0.7498757082500126 0.7501903511512653 0.2490199664970209 F F F
0.8726886068169095 0.8727613909683472 0.2489283332144340 F F F
0.8731777200024623 0.7498668553320679 0.3746969010707923 F F F
0.7499106884768697 0.8730179946367244 0.3750644126158245 F F F
0.8726379987968863 0.1241787136559498 0.7496546268771656 F F F
0.7488899284021753 0.9994961849636592 0.7492080548809973 F F F
0.1255121200708451 0.9997008226173046 0.6286196263441022 F F F
0.9966291792731338 0.1230702271732523 0.6281048719588433 F F F
0.5005225628971027 0.1261798220480835 0.8732094277120812 F F F
0.6250570501770284 0.0004263871447867 0.8726030599829969 F F F
0.3752249923440297 0.0006992270801132 0.6263887979005777 F F F
0.2513765647868595 0.1259717686741119 0.6316289813682401 F F F
0.6257532710890062 0.1250777953772283 0.7491875298700709 F F F
0.6271492694031808 0.1222957833549144 0.5013694304643622 F F F
0.6257321639775630 0.9991512315353105 0.6254577603876672 F F F
0.5018135939192923 0.1229533730449011 0.6261513337037872 F F F
0.7499817480049074 0.9990470919525750 0.5008459808665823 F F F
0.8728703168073186 0.1248610140441097 0.5006778452835270 F F F
0.8726654480320361 0.9987925298707350 0.6266644787272071 F F F
0.7502901814801317 0.1245354738523073 0.6260099247389670 F F F
0.4996196651042238 0.0004786244916106 0.7497735811520929 F F F
0.2490229800531007 0.1248644836510733 0.8764801404644332 F F F
0.1094029959711518 0.2474397930751104 0.6345901891072926 F F F
0.9980648001278496 0.3765911812811998 0.6222459834148019 F F F
0.3736595187510109 0.9997471312795633 0.8732116000553576 F F F
0.3749379587529585 0.1250003017662137 0.7530353692702864 F F F
0.3853382883582326 0.2473340044083845 0.6324479514161473 F F F
0.2444074817760696 0.3020259666647757 0.5736847902454623 T T T
0.2496238841425220 0.9995068084725757 0.7515765777920426 F F F
0.6307212189538218 0.3761699684926241 0.5005694816295169 F F F
0.6266027455369555 0.2495908002847254 0.6266936325295873 F F F
0.5033197477119333 0.3756016531690048 0.6290177150956671 F F F
0.7496414227458218 0.2491489132546333 0.5026467917903856 F F F
0.8708937748286986 0.3748101859754068 0.5022534016919989 F F F
0.8747681923585199 0.2499222303086390 0.6254393119602020 F F F
0.7503713333692060 0.3752956348692166 0.6264109719422239 F F F
0.9983189160710022 0.1222760544182714 0.8728137908796855 F F F
0.1254895518406562 0.6285264713574698 0.5025097800299506 F F F
0.1288621380063504 0.4964345033907467 0.6203071147202673 F F F
0.0006959691795345 0.6244432248932357 0.6241687559337969 F F F
0.1238511435103991 0.9989790269404589 0.8758406550251728 F F F
0.3748839690023528 0.6274239980291337 0.5006678351208393 F F F
0.3731715171235450 0.5003840096806115 0.6270914629699360 F F F
0.2500919265539656 0.6248338927402980 0.6248401362974358 F F F
0.1247431771446368 0.1226997725972593 0.7524528335426842 F F F
0.6274424080819841 0.6280053571164654 0.5000548540322013 F F F
0.6280641206799722 0.5010103989357736 0.6268456308804035 F F F
0.5000425442543507 0.6269715437258560 0.6270344562034190 F F F
0.7502841939092656 0.5017844290553478 0.5001240706614678 F F F
0.8738436652691199 0.6265444297570902 0.5001936358510796 F F F
0.8742837783221185 0.5009086523101699 0.6242925810099371 F F F
0.7502511384429881 0.6265101589183397 0.6254587865444031 F F F
0.9985905284565375 0.7496493142359179 0.5002655175633928 F F F
0.1241733531269749 0.8696793393338904 0.5006088903260155 F F F
0.1247875562544354 0.7497327714406634 0.6262750896990151 F F F
0.9995166365883741 0.8725606326823903 0.6265714654039763 F F F
0.2509539544370648 0.7505156466766711 0.5026028329864501 F F F
0.3771779197959168 0.8741814017493292 0.5015085002594656 F F F
0.3752819494535694 0.7502588678788930 0.6259259130104204 F F F
0.2501703299536097 0.8742466393628679 0.6263541841412946 F F F
0.5006494163975747 0.7503497113286686 0.5010868329819191 F F F
0.6254665688619261 0.8746769258435805 0.5010432633338430 F F F
0.6258118463627717 0.7506291948679527 0.6257457574033704 F F F
0.5003658770292840 0.8750490236473636 0.6253329889419070 F F F
0.7498152263920584 0.7506336292470632 0.5003322005248007 F F F
0.8729848559039446 0.8731360984526907 0.4998413433793801 F F F
0.8742586081852665 0.7497803352329705 0.6253531435011142 F F F
0.7495900573201109 0.8737265717828838 0.6256790530524065 F F F
0.9994283453774285 0.9988863427969853 0.7501786471891621 F F F
0.5032905959477822 0.5017640002586233 0.5002530257665629 F F F
0.3777556901687692 0.1224965386279798 0.2583007462654986 F F F
0.1230138624421974 0.9957333582135230 0.1189168595810534 F F F
0.5046340529592958 0.2503007061564545 0.4940940986169372 F F F
0.3772124838885784 0.3736242754056716 0.4993476915511249 F F F
0.2515549034008860 0.9938285968975037 0.2550696674784765 F F F
0.9958205634041724 0.1212094301262939 0.1294065665672453 F F F
0.2519235857238997 0.1213472798475056 0.1156970424702273 F F F
0.4983069620161532 0.0016333620719819 0.0022802698978600 F F F
0.3665969142620215 0.1340236734623328 0.4918943557058161 F F F
0.2481616317073070 0.9983391408014272 0.4947117793792052 F F F
0.1328690478627416 0.1359704743941546 0.5009169918715208 F F F
0.0013997372452350 0.9988015903230970 0.4999147830362496 F F F
0.9967742392054894 0.2498659093350586 0.9975120313447827 F F F
0.3763168369327576 0.5035879441691401 0.3655844801465607 F F F
0.1259775598447008 0.3742173377817143 0.0000058064516505 F F F
0.1265233871062057 0.5027817118916889 0.3779982457051486 F F F
0.9979222425521765 0.5022864863590619 0.2434773132553312 F F F
0.1238932897064817 0.2479612479701245 0.1372091445345339 F F F
0.5063726478108341 0.2487593294969232 0.2551600750419751 F F F
0.2503284456515744 0.3732638253583012 0.3667100548571753 F F F
0.3789217291571192 0.2481199925079459 0.1155424136558539 F F F
0.2522614387634132 0.3761080776718743 0.1364524572480862 F F F
0.5041023596759836 0.3771607329852416 0.1191557026205129 F F F
0.9967051487050800 0.3741646086238815 0.3771183345764276 F F F
0.1249174369228807 0.2504722096618343 0.3597769803486859 F F F
0.9993406498412617 0.5006593549263345 0.0011422345949614 F F F
0.2505345650997757 0.5033125380078474 0.9974649188965129 F F F
0.3787870730474802 0.5042169544530865 0.1294321756612877 F F F
0.5018685281625191 0.9981280006780806 0.2478998610002248 F F F
0.9977443323535073 0.1236661267943895 0.3661181150424758 F F F
0.2533755458164173 0.4991652317572561 0.5020032794166467 F F F
0.3799176020653718 0.9911670199743834 0.3767912164090674 F F F
0.2446957298152524 0.1253200561650810 0.3704109806348890 F F F
0.1210509748077813 0.9929861860023197 0.3726122484018473 F F F
0.1270757107766397 0.1133409620408671 0.2487074004337459 F F F
0.9958857863770336 0.9923758759769580 0.2483611945285220 F F F
0.5017612775983983 0.5037574619749421 0.9962652278076626 F F F
0.5093018418721900 0.1197339076338567 0.3766371383662475 F F F
0.9865766706419655 0.2532575599901390 0.2481305859123759 F F F
0.1269508439583616 0.5060199092970317 0.1238172477358427 F F F
0.1188143289195194 0.3827944565040429 0.2470361084216998 F F F
0.2586604916001037 0.2429410855795507 0.2491453191858375 F F F
0.5053070941649733 0.2499448643131396 0.9940729008471684 F F F
0.3854584622331485 0.3729239365804258 0.2494967117206636 F F F
0.3761678564058540 0.2554301457347399 0.3712735641745643 F F F
0.3750408367386767 0.3787371825546281 0.9940651946968724 F F F
0.2485696803107241 0.2516046112798753 0.9941704369261285 F F F
0.9940228186694520 0.3732238378399598 0.1238534328684872 F F F
0.5079626530250398 0.3798229369495235 0.3726921726603359 F F F
0.2468283440639682 0.5126243090076065 0.2485170648126111 F F F
0.5076429894581537 0.5041655850285583 0.2483909981207085 F F F
0.5048859424571689 0.1265320003284685 0.1244137355940084 F F F
0.4981749760466718 0.0017789691929194 0.5013503326153922 F F F
0.9970776939104296 0.2473320573830297 0.5000617289456725 F F F
0.3735233649710105 0.9952967812951656 0.1243967313839901 F F F
0.3765135284048634 0.1237821307164011 0.9918146492239445 F F F
0.2504426765714146 0.9949286120832462 0.9943158357593047 F F F
0.1208731901545182 0.3732474184389921 0.5004695650586075 F F F
0.9977983031660892 0.5026773486313126 0.5011941563728132 F F F
0.1211583997119603 0.1254105518005855 0.9944803621756201 F F F
0.9959076910053289 0.9977595737554418 0.9967946967567061 F F F
