#comment
1.0
16.184 0.0 0.0 
0.0 16.184 0.0 
0.0 0.0 16.184 
Al Mg Zn 
230 15 10 
selective
Direct
0.0015803843173273 0.9995599263827689 0.4981635817530594 F F F
0.8761390119267282 0.7437962673738664 0.8743235618758677 F F F
0.7484524063221657 0.7469941460049844 0.7480638909372602 F F F
0.9983871342707822 0.1435729594091140 0.1335251321170974 F F F
0.4988627804641440 0.8735739625142634 0.8747866865470858 F F F
0.3756823206750262 0.1249050909848610 0.0018844885394660 F F F
0.3739871709833957 0.9993970526893917 0.1260866601868545 F F F
0.2500936702950004 0.1241255870131782 0.1269914775796579 F F F
0.4985119459000098 0.0001243935135020 0.0013679949455178 F F F
0.6212724672729518 0.1268315966303777 0.0016409985585294 F F F
0.6212087903349068 0.0012274168055355 0.1266165900221853 F F F
0.4987482961064826 0.1258237976924275 0.1264755979558221 F F F
0.7477853679324934 0.0040382466700066 0.0021150385710949 F F F
0.8802611604580252 0.1202595369993241 0.0035074026015143 F F F
0.6225477493238890 0.7477317752248904 0.8741712492114313 F F F
0.7475007205589642 0.1261634981436341 0.1250320056082100 F F F
0.6226623409715911 0.8739649349163332 0.7483575113327072 F F F
0.1277027506109584 0.3771496873903757 0.0002660924524881 F F F
0.1288583588193571 0.2549027890316148 0.1293296691047738 F F F
0.9998972148537485 0.3774702069817579 0.1278484377129665 F F F
0.2541951058651307 0.2550070999095954 0.0006254480310058 F F F
0.3767997922206211 0.3765988736926669 0.0005013937438547 F F F
0.3749272375311838 0.2501741542446164 0.1265324555933728 F F F
0.2523515803125380 0.3765600325982500 0.1266622346357232 F F F
0.4989896326529899 0.2513450292456705 0.0006924660711317 F F F
0.6234564185948772 0.3755176503121113 0.0003660788592566 F F F
0.6232775490453933 0.2512412611113764 0.1261698817730856 F F F
0.4994417890229859 0.3750709590284006 0.1265461951673014 F F F
0.7496669170058234 0.2519580588665581 0.0015494605067174 F F F
0.8724338986355978 0.3787264481195232 0.0003463198409861 F F F
0.8705560331462555 0.2549620050581922 0.1265096140626104 F F F
0.7471610845056618 0.3770955269898742 0.1264255172571593 F F F
0.0010275270724327 0.4984752844357866 0.0001967055119806 F F F
0.1271606119742281 0.6224836005048623 0.0003879599465692 F F F
0.1267070841927425 0.4992594652489120 0.1260548178718235 F F F
0.0023273279316706 0.6205717962380380 0.1269393485332171 F F F
0.2515190262999939 0.4999993934323315 0.0002858304303959 F F F
0.3764551574563303 0.6236143777648171 0.0005810361265540 F F F
0.3761377118424196 0.4998732239685394 0.1263367233849258 F F F
0.2518299622887554 0.6228368847464004 0.1263005408297652 F F F
0.5002162260046980 0.4998163852897938 0.0002587941202375 F F F
0.6226762110217412 0.6237671112469987 0.0003221760402886 F F F
0.6227191568632607 0.4995006983318949 0.1260860909985790 F F F
0.4992305128925952 0.6247741366310692 0.1262844093434859 F F F
0.7476595702199887 0.4994185502053995 0.9999389459973262 F F F
0.8742540212035277 0.6191353428289799 0.9985653504424432 F F F
0.8741812537093859 0.5001804619241091 0.1267766174594768 F F F
0.7461236876819137 0.6210265620180199 0.1264053638091939 F F F
0.0008791579164215 0.7402596355123716 0.9982315606519716 F F F
0.4994300395772833 0.7484188305274602 0.7486750872683849 F F F
0.1290331239129962 0.7441827243745596 0.1289689773570992 F F F
0.3766320000479760 0.7480433032129266 0.8742905846048308 F F F
0.2537495868186497 0.7452620245986039 0.0011672366033571 F F F
0.3738549328253721 0.8746312649879031 0.0020466276858319 F F F
0.3747348084332009 0.7499872788077624 0.1265451625701106 F F F
0.3766686687452753 0.8742360285929045 0.7469621496547023 F F F
0.4984823778651869 0.7489107562460937 0.0006542324337454 F F F
0.6200110044942621 0.8742096858492080 0.0007807086940325 F F F
0.6228687545491060 0.7484238998083934 0.1261805454056082 F F F
0.4986358501699338 0.8742336888784947 0.1264562831505953 F F F
0.7476712488428404 0.7450026676130064 0.9986689784166844 F F F
0.2509892446067589 0.7473998639195273 0.7470465463604958 F F F
0.0032276800149536 0.7473076821970320 0.7492419066447372 F F F
0.7486196999928226 0.6228973530452262 0.8734518628740051 F F F
0.8739696430452357 0.4996926571932038 0.8733148033215870 F F F
0.8749549362601190 0.6237179254286671 0.7485809250712485 F F F
0.1263454200531051 0.0003969341685185 0.3741963797978185 F F F
0.0025428077238879 0.1252426890635394 0.3757653056584441 F F F
0.2489507131188883 0.9999214094768443 0.2483684784566874 F F F
0.3753585225509495 0.1257809744753162 0.2509799810737148 F F F
0.3742482305406006 0.0000596619198545 0.3742435852212044 F F F
0.2506238856658006 0.1257289492607296 0.3743297594049458 F F F
0.4985437888573184 0.0001538986671449 0.2510493616685497 F F F
0.6235581230651813 0.1265927809109678 0.2512679536436801 F F F
0.6227589074372057 0.9999464322297610 0.3764395337490217 F F F
0.4994152772715449 0.1261412628130052 0.3755448224412611 F F F
0.7463789700071491 0.0003620121617544 0.2536639468775874 F F F
0.7491830502042279 0.4998290198550847 0.7487944667583075 F F F
0.8751534102303676 0.9990368480744433 0.3787282062999586 F F F
0.7474519620324848 0.1259419266614475 0.3773892395733498 F F F
0.0013365037735631 0.2555008888037196 0.2557574904449548 F F F
0.1268238697867869 0.3766722536439466 0.2520027731159503 F F F
0.1267965818981581 0.2499356892894388 0.3748785932580770 F F F
0.0005933107066170 0.3771122836743980 0.3774736391619941 F F F
0.2518620018039354 0.2511833004965575 0.2520860725320772 F F F
0.3757051037770308 0.3749838695592189 0.2510830258907774 F F F
0.3759642593442638 0.2511617906927611 0.3756739184043819 F F F
0.2511237353914554 0.3752198812123523 0.3756208678752734 F F F
0.4993038602700039 0.2508129936273477 0.2510107245650562 F F F
0.6233897624244114 0.3756494256799797 0.2513730038795187 F F F
0.6234613548248635 0.2512500538670609 0.3758869951310730 F F F
0.4996668823873686 0.3754671122941878 0.3753023728715195 F F F
0.7471288087321288 0.2522394469908899 0.2518707538554211 F F F
0.8738788185841292 0.3758222799630037 0.2516386377476255 F F F
0.8740633323854659 0.2524386189260781 0.3772388146893349 F F F
0.7488852328674740 0.3755555893778229 0.3756665262171716 F F F
0.0005570204489638 0.4992767639765322 0.2517524557004586 F F F
0.1271303597906890 0.6223404853643478 0.2521819225345039 F F F
0.1265235404298174 0.4999178273610616 0.3765062835154795 F F F
0.0005988982425461 0.6221878623251483 0.3784083430014253 F F F
0.2516339885767615 0.4996583834288741 0.2514782645519016 F F F
0.3755869883334960 0.6245639344107187 0.2510617043622888 F F F
0.3755232410056461 0.5000020399559192 0.3753339066356682 F F F
0.2511650851747576 0.6246903330390801 0.3757153601327037 F F F
0.4995863881953878 0.5000298872782896 0.2510735789923482 F F F
0.6232267262894317 0.6235682304138725 0.2514663707933617 F F F
0.6242876339442741 0.4999783655564218 0.3757432523184459 F F F
0.4998894166090521 0.6241564657328444 0.3756610653124200 F F F
0.7482435003342019 0.4990917680327284 0.2518533337587458 F F F
0.8737874649035811 0.6208784193533947 0.2539886519009922 F F F
0.8740654799251802 0.4992928715206498 0.3766161916358275 F F F
0.7486169078180274 0.6237593820455292 0.3764434249695401 F F F
0.0013612480685870 0.7423392900842047 0.2581084719260375 F F F
0.1290642180760700 0.8757522355073599 0.2510803020181560 F F F
0.1269194869903872 0.7496301244375081 0.3761633718168899 F F F
0.0012079599953375 0.8744543374659264 0.3748980153338357 F F F
0.2520875049325181 0.7483493744749767 0.2518584486770479 F F F
0.3746093036145892 0.8742562617191675 0.2504931271839654 F F F
0.3760206595765967 0.7484652087372496 0.3760234196301298 F F F
0.2513546327148793 0.8743387238381501 0.3756906827164933 F F F
0.4989576117530446 0.7488677414328275 0.2512501324626994 F F F
0.6224634436859423 0.8741721445286139 0.2518765493693430 F F F
0.6233423530402356 0.7485744664263575 0.3765002604356016 F F F
0.4990129547527247 0.8739283857544029 0.3756158442216412 F F F
0.7465478116598587 0.7470180795281723 0.2542298990829209 F F F
0.8710560796200834 0.8747608933893194 0.2588621046483646 F F F
0.8737374496071600 0.7472683507814448 0.3779594653647497 F F F
0.7473971491361642 0.8738224291046685 0.3780093271013314 F F F
0.4997779585863703 0.6240566497176844 0.8742269044815599 F F F
0.1268446927182912 0.1256458023139235 0.4984565190415564 F F F
0.1259345500912649 0.0003969711283467 0.6215688722207547 F F F
0.0022252003908822 0.1267225106812530 0.6195361693234742 F F F
0.2508048435096685 0.0002153075567338 0.4986715294643297 F F F
0.3750814033093075 0.1261599014811847 0.4989647668296539 F F F
0.3754241235026493 0.0002776459225091 0.6227004975621530 F F F
0.2506025526776802 0.1265428561569638 0.6232287103192864 F F F
0.4992285958922674 0.0001492622940682 0.4993509012740456 F F F
0.6235859867813346 0.1263303106512409 0.4999740090620853 F F F
0.6227771849262874 0.0002347608152564 0.6228047797839225 F F F
0.4996575445204917 0.1264197112374354 0.6232762757936180 F F F
0.7482108441141535 0.9998346361195544 0.4996354809210586 F F F
0.8747093919368717 0.1263461917742848 0.4988601279032980 F F F
0.8756531949268404 0.9999286114698533 0.6191081318806195 F F F
0.7482082691141607 0.1265421913471634 0.6225661080944549 F F F
0.0009094311948322 0.2515454754940906 0.4988365536758926 F F F
0.1267694944383055 0.3752186065462375 0.4995824620127287 F F F
0.1263512829235892 0.2511641943102444 0.6228046813244690 F F F
0.0006152001264812 0.3760432399338283 0.6231321674505592 F F F
0.2512284867263947 0.2510040661151379 0.4991232445822020 F F F
0.3756223906482221 0.3755781667676463 0.4996264057710139 F F F
0.3757584375438026 0.2511460405660497 0.6232966831366200 F F F
0.2513172404587106 0.3758909452897371 0.6235434918756256 F F F
0.4997235420280202 0.2513195062438067 0.4997781070190554 F F F
0.6240091056470511 0.3755109264864995 0.4998466512097748 F F F
0.6235998576512318 0.2514326397482812 0.6237973674416654 F F F
0.4998254794392937 0.3754124215735297 0.6243987714600500 F F F
0.7484461676994165 0.2518565086912985 0.4999142973299663 F F F
0.8738214020431118 0.3761103522771214 0.5001514638049606 F F F
0.8750100127924348 0.2525849863069514 0.6221114507278801 F F F
0.7486233543563323 0.3761667527455749 0.6236706557882795 F F F
0.0003678719581045 0.4997091533647372 0.5011124994037096 F F F
0.1266745048297525 0.6245532269523154 0.5001838847868965 F F F
0.1264394240664322 0.5003505956756370 0.6235088996979469 F F F
0.0008277856646017 0.6242174410815207 0.6237306172137412 F F F
0.2515291759900771 0.5001044127068167 0.4997573546779228 F F F
0.3756172951394214 0.6240880885959484 0.4998977202236934 F F F
0.3755592166123731 0.5001005078328111 0.6246561978501509 F F F
0.2511734876890142 0.6238755906751784 0.6241535841870044 F F F
0.4999550495824826 0.5001598870914330 0.5000995326631698 F F F
0.6242747055974456 0.6245100115511155 0.5003441817113432 F F F
0.6243841149810047 0.5001452548359356 0.6247367777960910 F F F
0.4997151916791118 0.6243422537237296 0.6243466708170752 F F F
0.7487779246059018 0.4999758793420477 0.4999312822101084 F F F
0.8741925158148135 0.6238068184842598 0.5005028764475441 F F F
0.8742783723601498 0.5000047852890416 0.6242051799892234 F F F
0.7492995447556343 0.6237618108706864 0.6242603752947236 F F F
0.0008109168513106 0.7489989356569630 0.4992863223060202 F F F
0.1265981396642514 0.8744743405845665 0.4986426211957889 F F F
0.1263512892998053 0.7491721375549570 0.6234903203250083 F F F
0.0026493327031810 0.8737002935045857 0.6210448676644209 F F F
0.2514162826418527 0.7488614352073374 0.4997566895870936 F F F
0.3753046584815153 0.8739402663575110 0.4995288720145717 F F F
0.3757146963650289 0.7484042967589417 0.6237223871378789 F F F
0.2505064691139225 0.8739892721805714 0.6235328685845926 F F F
0.4995691834567239 0.7486222024536980 0.5000425935556081 F F F
0.6235922426245315 0.8735494314809661 0.5002780327741584 F F F
0.6240192813384857 0.7483685568745002 0.6244179271019313 F F F
0.4997099472832799 0.8737873341461878 0.6237435414429243 F F F
0.7487440473929953 0.7482362674622846 0.5005347188183195 F F F
0.8748787069664157 0.8732464279848146 0.5000059034421461 F F F
0.8756032210659985 0.7479958219783177 0.6235229944838010 F F F
0.7485848198325212 0.8737624015409683 0.6233722827973297 F F F
0.6239362107842702 0.5001724582332718 0.8741405803472364 F F F
0.1229646814629099 0.1262707378682425 0.7464701766269172 F F F
0.1163884486831312 0.0003429085758102 0.8715570412005362 F F F
0.6240224790079344 0.6237478526983370 0.7488528863130868 F F F
0.2497534326115444 0.0001873678208498 0.7442604119596901 F F F
0.3773677010576665 0.1258956116945271 0.7466350138473471 F F F
0.3791062806133742 0.9993129249334217 0.8743496713413544 F F F
0.4994906162365655 0.5002267015582963 0.7490510503522066 F F F
0.4996555105839962 0.9999645840956293 0.7479624565700995 F F F
0.6225132869731502 0.1266917114924961 0.7476899311306470 F F F
0.6197815770988170 0.0006387157899443 0.8747314455671583 F F F
0.4991860305794040 0.1264599278120297 0.8744298942856134 F F F
0.7467708807342762 0.0003524103286960 0.7457163450414169 F F F
0.2514127687207058 0.6239799583887712 0.8742719319482611 F F F
0.8834953154708339 0.0043731719247171 0.8734097388063320 F F F
0.3756389700382165 0.5002686144919473 0.8742774772565318 F F F
0.0017401805638898 0.2533580145641839 0.7480392121881404 F F F
0.1265390581743561 0.3774981044741035 0.7471601017868876 F F F
0.1271724965100334 0.2560427531155240 0.8694830947156632 F F F
0.0002901794825982 0.3791861766198055 0.8722237168870181 F F F
0.2517789438617351 0.2520967377434316 0.7464731697299578 F F F
0.3756037256464892 0.3758447287283441 0.7482681308818140 F F F
0.3770380123500860 0.2522670204009289 0.8738070189664811 F F F
0.2520374747861076 0.3765592331979868 0.8738705406410786 F F F
0.4996285755421246 0.2516527683287994 0.7483496405457393 F F F
0.6236914356209097 0.3763058124757489 0.7485963233913595 F F F
0.6225465606698884 0.2526612771511843 0.8744842222322247 F F F
0.4996698463576141 0.3762871611541279 0.8739104034757095 F F F
0.7477204836341149 0.2535177713872907 0.7468484747724545 F F F
0.8741981835166921 0.3763367602197016 0.7474411996781428 F F F
0.8731316714703395 0.2554808040960126 0.8734305792909250 F F F
0.7478140774791399 0.3764577956774633 0.8741828525559588 F F F
0.0003534254506045 0.5003357467583530 0.7480989320168734 F F F
0.1263882931579381 0.6233835057699727 0.7489518011033084 F F F
0.1269024271110924 0.5000639406040109 0.8744841329567811 F F F
0.0016435513102278 0.6212520416202894 0.8733699989897239 F F F
0.2512856699027449 0.5002892878427333 0.7488925893314490 F F F
0.3754934473316677 0.6242663660705439 0.7490553501876938 F F F
0.7486695128163979 0.1259574083876739 0.8752790241459583 F F F
0.8781973617396317 0.1257497338872491 0.7466389622030855 F F F
0.2526550464091176 0.1229497476866697 0.8717101171931178 F F F
0.1282547409779799 0.1343874987410679 0.9966830362218263 F F F
0.8785756943447033 0.8757253331678421 0.7493088506684119 F F F
0.7490429191776099 0.8763603843719570 0.8769772522521764 F F F
0.8736688532143083 0.1245173522279029 0.2527381960991776 F F F
0.0553038265702366 0.0032779413987014 0.0713887879799755 T T T
0.9980370772809730 0.2550252349723465 0.9979785362234852 F F F
0.7506672463389644 0.8765603478812334 0.1244244613866922 F F F
0.8723186751573464 0.7419945680222253 0.1270113950267041 F F F
0.1248971230899700 0.8652844549736070 0.9976797689219572 F F F
0.2496516310961743 0.8762085495717856 0.8715857692806418 F F F
0.9973059995522492 0.8622749344255342 0.1385298453977727 F F F
0.8896096801808534 0.8833236028476326 0.9969637463784478 F F F
0.2478273165837762 0.8767715432665707 0.1266139232550954 F F F
0.1275605160432266 0.7440710823325040 0.8724509719782088 F F F
0.1247003694886207 0.8747947965018215 0.7456571661633109 F F F
0.0040641320102324 0.0012000510687206 0.2507695443972078 F F F
0.8773584848811548 0.0016658079192853 0.1286227047288916 F F F
0.2470182186013309 0.9998961430465796 0.0039800347235335 F F F
0.1271705859087542 0.1222601173598082 0.2478742379920360 F F F
0.0022465140841025 0.0008518566283377 0.7422883117676822 F F F
0.0006694896516508 0.1276376922951150 0.8746721486368881 F F F
0.0055833079512326 0.8716691997450629 0.8691348216833930 F F F
