#comment
1.0
16.184 0.0 0.0 
0.0 16.184 0.0 
0.0 0.0 16.184 
Al Mg Zn 
215 10 30 
selective
Direct
0.0006900034272903 0.9998856806949561 0.4969227665165828 F F F
0.0003047494113620 0.4999101875047214 0.7486903826054409 F F F
0.7488154710412711 0.3762695330990423 0.8750565954820358 F F F
0.9941924685854321 0.1154490321695872 0.1222174610672296 F F F
0.1269356643089713 0.6228796266141214 0.7490382522365076 F F F
0.3767657058673481 0.1254680336251713 0.0005613522835668 F F F
0.3777425777435447 0.9993225332692406 0.1259731020756234 F F F
0.7492511398185111 0.7491521464627079 0.7485192931340501 F F F
0.5000414578480868 0.9996869065321788 0.0006801029164856 F F F
0.6226101302285456 0.1257849648362330 0.0026745589302337 F F F
0.6236385227938787 0.0005251811603559 0.1269795686198155 F F F
0.4999745053194680 0.1254070905800613 0.1262293641812380 F F F
0.5004637894356641 0.8743747395564715 0.8750557335372926 F F F
0.6241165746211816 0.7492971604500682 0.8750687477945760 F F F
0.6246152527714918 0.8742829063375438 0.7498926211733241 F F F
0.5001001337945112 0.7493153692476974 0.7495245602994964 F F F
0.8742011889987462 0.3772459909274857 0.7486821001208165 F F F
0.1252342977661474 0.3762658507338367 0.9997739190313518 F F F
0.3758150044889270 0.7489873465702550 0.8749497486691186 F F F
0.9995583902725620 0.3765668517387764 0.1250529016077783 F F F
0.2475596816604742 0.2479141857223733 0.0005947698257878 F F F
0.3748378884851336 0.3751261754263068 0.0000900490958738 F F F
0.3757891526230738 0.2509473092864770 0.1251672756934784 F F F
0.2501375552168467 0.3759978085535898 0.1247009013557308 F F F
0.4993090087678854 0.2511111394842988 0.0004278701126957 F F F
0.6243743152062317 0.3761437595437855 0.0006523187353025 F F F
0.6236100327275601 0.2511557954541636 0.1261455332544417 F F F
0.4996752772248543 0.3758316441013931 0.1258602279874637 F F F
0.7521572101211215 0.2514248694241230 0.0044463455576016 F F F
0.8738193379472253 0.3775529334186654 0.0000354936464548 F F F
0.3763278176520255 0.8743415793685879 0.7499017151383964 F F F
0.7492938843922756 0.3765769900146386 0.1262682611206336 F F F
0.0004576663227304 0.4999556038281428 0.0004579370149388 F F F
0.1254683048147237 0.6247489651122161 0.0009192638949762 F F F
0.1251723017179905 0.5002949988827532 0.1254380456564964 F F F
0.0004503164686492 0.6249415217728966 0.1251050378048536 F F F
0.2501847675023494 0.5000561047168206 0.9998381530982240 F F F
0.3756662198387855 0.6244367664931875 0.0001458284365551 F F F
0.3751037631897335 0.5000084791607854 0.1256069828628748 F F F
0.2501277558665524 0.6243656333861755 0.1251741432015246 F F F
0.4992320609487333 0.4995177329473446 0.0000713740893746 F F F
0.6232177653195842 0.6238100335862844 0.0003441259557403 F F F
0.6239698985741440 0.5003481942338491 0.1259046949698078 F F F
0.4995136054238468 0.6247305416504368 0.1256167725416965 F F F
0.7490587437250628 0.5001068974322133 0.0002388020015674 F F F
0.8751667773466452 0.6235274132203760 0.0025647683128321 F F F
0.8745083723059173 0.4999950935386616 0.1260702812713668 F F F
0.7487934925010371 0.6234419590198641 0.1266267008822028 F F F
0.2501114823824469 0.7492513360037477 0.7507159272471917 F F F
0.0079081560428213 0.9537971105575179 0.9383571594172110 T T T
0.7489011620941599 0.2525528056287618 0.7485610477256209 F F F
0.0012111532279034 0.7425439317772752 0.7467153838506430 F F F
0.2503044320422781 0.7496507282214333 0.0006154500459464 F F F
0.3771730080826881 0.8738354645831209 0.0001970941808307 F F F
0.3752866409913541 0.7497584422406502 0.1251991445418065 F F F
0.7489301365069189 0.6235692322658520 0.8752176784497001 F F F
0.5001557754016620 0.7496469310471789 0.9999294221245533 F F F
0.6258166034066364 0.8750687717760037 0.0010905196513908 F F F
0.6233401828867410 0.7494774888173391 0.1260741213953085 F F F
0.5005525650833150 0.8743367437913532 0.1256933319801065 F F F
0.7466986285017112 0.7471941266283852 0.0032505861106349 F F F
0.4995903110351457 0.3758652744418952 0.8745204772237823 F F F
0.8743127483227577 0.5009042359093455 0.8745697410893153 F F F
0.8741457618681339 0.6230164138118223 0.7487252120298518 F F F
0.7486446979110287 0.5000398909522619 0.7490411682148491 F F F
0.6232094851712470 0.2521372346474520 0.8759020231155746 F F F
0.1255228479264680 0.9982338368143786 0.3739208233497937 F F F
0.9991119373167304 0.1244699360785147 0.3737294985490353 F F F
0.2508911574409979 0.9966342198011728 0.2468331276966529 F F F
0.3752861026715065 0.1252236038983257 0.2508091284115870 F F F
0.3755118036075318 0.9997892139724278 0.3752232647414425 F F F
0.2511545631077035 0.1245591540132502 0.3750926142457182 F F F
0.4999921125899722 0.9999449908906534 0.2513137089719161 F F F
0.6238842511317767 0.1257890074976532 0.2510900042715786 F F F
0.6242298080532179 0.9999998254856245 0.3757979236511766 F F F
0.4999809048453986 0.1257310986589757 0.3757233069465455 F F F
0.7490954295777182 0.0006199708458072 0.2511213287550885 F F F
0.4998681637323051 0.6246121222141762 0.8742873269201825 F F F
0.8752022379117540 0.9995779651493535 0.3732149181711317 F F F
0.7494415579931395 0.1256633664999422 0.3753934813948407 F F F
0.9973169417007414 0.2492808883510229 0.2462052684827423 F F F
0.1249858667820123 0.3750847273225090 0.2498388095340425 F F F
0.1251963415857653 0.2505791894781247 0.3744465545465421 F F F
0.0000640806961526 0.3753511668086275 0.3741698904003118 F F F
0.2516742569680971 0.2521574479948653 0.2500643490742145 F F F
0.3755067878902418 0.3759652790452936 0.2503355315857658 F F F
0.3756552288317713 0.2505660613837628 0.3755513206701047 F F F
0.2508434012731554 0.3758597370871158 0.3751467960254751 F F F
0.4995699181616136 0.2507641733371234 0.2507711566452746 F F F
0.6239496550394200 0.3758534589801869 0.2506471978515133 F F F
0.6240499903017482 0.2507219880659687 0.3756854702386896 F F F
0.4997714781794731 0.3757721801125405 0.3754582189085202 F F F
0.7489820265184230 0.2509128730064512 0.2506909782982270 F F F
0.8741671848319570 0.3755748612675423 0.2504607254816992 F F F
0.8745047712288608 0.2506868342827164 0.3746314981990269 F F F
0.7489535846615638 0.3755222951891997 0.3753822546899678 F F F
0.9999688088165491 0.5000302656041691 0.2500447450006953 F F F
0.1253037184557230 0.6245119205986575 0.2500495285504294 F F F
0.1258152667297958 0.5001651102571517 0.3747545364947265 F F F
0.0002411310898153 0.6251304333301896 0.3743883629215758 F F F
0.2503416865305106 0.5000915547236870 0.2502148993616007 F F F
0.3748340041195941 0.6246359862181494 0.2503480866354785 F F F
0.3753858595647843 0.5000198176150141 0.3753995733063495 F F F
0.2505070470456657 0.6246117466202258 0.3750873503657541 F F F
0.4999681424957609 0.5006611424370915 0.2510321981188673 F F F
0.6242203670426740 0.6248551189944208 0.2507796022060738 F F F
0.6243911707455662 0.5002165856524002 0.3756205518988254 F F F
0.4998237712354289 0.6246402321093425 0.3754619691358149 F F F
0.7489412486294196 0.5002855920044561 0.2513199811518797 F F F
0.8749923101421757 0.6246772687913624 0.2502697282957204 F F F
0.8743611232714966 0.5002737147581280 0.3749395548212016 F F F
0.7493553791611010 0.6249807053077896 0.3752157736051014 F F F
0.0001554733078868 0.7509145679015389 0.2481578390605614 F F F
0.6240096601144268 0.5003041706782823 0.8743968653069824 F F F
0.1253546221437167 0.7498114500168815 0.3743799584535135 F F F
0.9999823641383185 0.8748749272247044 0.3727566356027217 F F F
0.2498670831118444 0.7498647445707473 0.2496863886750943 F F F
0.3759664941455145 0.8740318261642163 0.2503979970129774 F F F
0.3752527471706671 0.7491985777673629 0.3752990908472125 F F F
0.2506224525458665 0.8742334144588478 0.3745756158511627 F F F
0.4997309738227158 0.7492517399000788 0.2510348250403176 F F F
0.6238521186027847 0.8747754356679893 0.2511921586996453 F F F
0.6246477430464846 0.7496549618807100 0.3753032306094671 F F F
0.4996419500143080 0.8741803960931674 0.3759833322295535 F F F
0.7498162998439182 0.7497852637783529 0.2502418824539602 F F F
0.6246132937719705 0.6248644689655352 0.7494585070862652 F F F
0.8750894036135263 0.7500881204638106 0.3737420496498980 F F F
0.7504099260503670 0.8750376049230122 0.3745134038788817 F F F
0.5000602541187158 0.5004180930486473 0.7488705605416112 F F F
0.1259826640085364 0.1249050887425984 0.4978557557378794 F F F
0.1268394124756132 0.9997038882264107 0.6219560340954638 F F F
0.0011929402942501 0.1264148562286377 0.6197684334790963 F F F
0.2515280790392570 0.9994422433463577 0.4989183771996180 F F F
0.3757743341935847 0.1258778848237557 0.4997936403463190 F F F
0.3768039895418964 0.9998211667341984 0.6236258453067965 F F F
0.2515316588529358 0.1255540780560410 0.6236632705464880 F F F
0.4998932426544060 0.9999007243549501 0.4996211935798586 F F F
0.6243071359080140 0.1259460614097495 0.4998657816295334 F F F
0.6238149690923095 0.9999969085107067 0.6233924390307649 F F F
0.5001112862193577 0.1256115133320756 0.6247692696063690 F F F
0.7493202006670842 0.0001585430459705 0.4983919268711767 F F F
0.8748274637422759 0.1254853883446081 0.4979726059952662 F F F
0.8750905523919859 0.0001516372799787 0.6193541535313650 F F F
0.7493966659807592 0.1258657815089700 0.6235151500376604 F F F
0.0003761956964065 0.2513599361009462 0.4976320497129192 F F F
0.1262097300396444 0.3757066312088763 0.4989997918642917 F F F
0.1258411153092640 0.2518124215528090 0.6229428639697279 F F F
0.0004424387388674 0.3767839856458904 0.6231339815925084 F F F
0.2506360786774788 0.2504399254379259 0.4992652395969407 F F F
0.3754044170088671 0.3754058662564907 0.4996461427884893 F F F
0.3759697913632875 0.2505205519850330 0.6243929152981692 F F F
0.2511579375756022 0.3761317954247873 0.6238235014277558 F F F
0.4999978845503564 0.2509614002198773 0.5000104707762179 F F F
0.6244851916908098 0.3757452986006697 0.4997434719057375 F F F
0.6240448530443327 0.2507912294725834 0.6242010814863723 F F F
0.5000704930146890 0.3755158397052507 0.6244714461511421 F F F
0.7495413824650107 0.2508669936569570 0.4993336534010734 F F F
0.8742443192475731 0.3756582794465811 0.4988746244056798 F F F
0.8754228443830286 0.2516684606952765 0.6227287681320741 F F F
0.7492278980096806 0.3762192612969850 0.6238037523157394 F F F
0.0001732362968287 0.4996755659076312 0.4980996381129478 F F F
0.1259205908751901 0.6247256166799954 0.4992798882220179 F F F
0.1259329698524445 0.5001615241350091 0.6237394238247467 F F F
0.0001681458279760 0.6233776621024097 0.6223934095884841 F F F
0.2509703887252382 0.5004103823986054 0.4995459172935659 F F F
0.3756726562582225 0.6245740615680488 0.4997145248628767 F F F
0.3758787940824552 0.4999686595356147 0.6243583852220250 F F F
0.2510635367900998 0.6241442128181252 0.6237512136162977 F F F
0.5000643891148148 0.5000799292757891 0.4999632742867510 F F F
0.6244581421292301 0.6248775998978472 0.4997043551618834 F F F
0.6245352011452636 0.5002851995267371 0.6244212487144281 F F F
0.5000122291389881 0.6250091761827141 0.6246128321323826 F F F
0.7494750255240205 0.5003797680120490 0.4993360447549196 F F F
0.8744783270217031 0.6251123621997495 0.4987975004508258 F F F
0.8744356977977350 0.5002425442245771 0.6234219181202963 F F F
0.7494539699079033 0.6242746105311362 0.6235559295265547 F F F
0.0004012532974201 0.7490630004611857 0.4977325278386459 F F F
0.1258607940928892 0.8744196441334215 0.4981583782742028 F F F
0.1262007746947312 0.7496050736073115 0.6237664161531657 F F F
0.0017574142278286 0.8743810374545593 0.6203601095512051 F F F
0.2509311425008065 0.7496916955650957 0.4994724576765078 F F F
0.3752641012589693 0.8740335644965858 0.5001326353024967 F F F
0.3754189010188770 0.7495671701524316 0.6247732373430458 F F F
0.2495801814089046 0.8743703532947485 0.6254861308609397 F F F
0.4999643230488207 0.7494791434138139 0.4997817644897992 F F F
0.6251103355476069 0.8741626607422380 0.4998215591365443 F F F
0.6247940687291800 0.7496989846180013 0.6243484711139983 F F F
0.5003945162706841 0.8741043663137652 0.6245227698382669 F F F
0.7498661673267437 0.7496773934578252 0.4989227512819095 F F F
0.8750606918857936 0.8744902290156060 0.4976682228230976 F F F
0.8748076849001535 0.7498186574960113 0.6230730831609890 F F F
0.7506150891283019 0.8748468608033816 0.6239424522162595 F F F
0.2503419799776497 0.6242958787627317 0.8751696655840305 F F F
0.6241101209599360 0.3760243955867595 0.7493683717613562 F F F
0.3755060803427469 0.5001912934322328 0.8743937241874542 F F F
0.3752921725605108 0.6248196933908953 0.7493865191469545 F F F
0.2542007730342944 0.9989922187447586 0.7496571353512167 F F F
0.3755810711002697 0.1252545194209388 0.7501448323788910 F F F
0.3776236746301438 0.9998815448383781 0.8753448331864158 F F F
0.2517279810430808 0.4998776139715050 0.7491974363239587 F F F
0.5004043643494094 0.9997538834849233 0.7495816695169177 F F F
0.6239548448690043 0.1256901954261949 0.7496638178241897 F F F
0.6230947125993195 0.9985392249003635 0.8762000728157824 F F F
0.5008635683685663 0.1251591391489650 0.8749764539898321 F F F
0.7465437722777791 0.9994372540834716 0.7487135224866832 F F F
0.4997505188020928 0.2509920485584110 0.7497473931370819 F F F
0.0018624299384008 0.6220252195335391 0.8761008424322819 F F F
0.2511369121346761 0.3758441124315291 0.8751776539190890 F F F
0.0002237309567062 0.2553997054641081 0.7513611975296161 F F F
0.1262121503355969 0.3762837521890485 0.7492081488655029 F F F
0.1260969642668107 0.4999149281333143 0.8744776686451715 F F F
0.9997685557872515 0.3780584102021212 0.8747656517167035 F F F
0.2522173314239056 0.2521622416230008 0.7498593341551609 F F F
0.3761131925759520 0.3755696077053178 0.7493449969986691 F F F
0.3759791874640129 0.2507640149058218 0.8754412092447519 F F F
0.7508583792546493 0.1262878814608369 0.8796746224593023 F F F
0.8797159834917926 0.1232417902944885 0.7517083997369487 F F F
0.1239215667554058 0.1268760287512337 0.7530480165896353 F F F
0.1252166390086472 0.1233475956654543 0.2439207191604408 F F F
0.8687731965549608 0.8792421044739537 0.0085849741667608 F F F
0.1161099959821835 0.8764252335092215 0.7626668832516467 F F F
0.9974903610866058 0.2451922426373173 0.9989423526281076 F F F
0.2467237354765646 0.9989325243729558 0.0035459221632515 F F F
0.8838975570554729 0.8805603944696934 0.7551554060499266 F F F
0.8790332797559333 0.7507322099748989 0.8783684898411183 F F F
0.1262878867617480 0.2533557268338220 0.8757925761995032 F F F
0.8652045778136125 0.9992519359888977 0.8789826464839160 F F F
0.2533500891740441 0.1278887180224203 0.8766883907482959 F F F
0.9990923501647663 0.1184740204649376 0.8803867040444721 F F F
0.1397340745536951 0.0064060263706587 0.8722653355084525 F F F
0.0030942168404751 0.0038858647200119 0.7450698199170512 F F F
0.8733862290773551 0.2546522006195871 0.8738419378369424 F F F
0.8752010515049784 0.8745385234807387 0.2471191738467975 F F F
0.1245729716360326 0.8741134928706975 0.2484528954842591 F F F
0.8730459557470972 0.1253329097672503 0.2510844042061082 F F F
0.9994410819658669 0.9976773281641647 0.2492615059268179 F F F
0.7456266926272775 0.8752479135510046 0.1300314295911347 F F F
0.8747335744137846 0.7476686218103868 0.1268542531402397 F F F
0.2494846925877914 0.8720806053081350 0.1260562743360093 F F F
0.0014269560426355 0.8761832303661448 0.1230600837971470 F F F
0.1248861207516048 0.7479531690286251 0.1265829325517965 F F F
0.1229230394017571 0.7452199797666644 0.8767665596533504 F F F
0.1287105241565508 0.8662823463977214 0.0008830359311471 F F F
0.0025581624559910 0.7512295792062822 0.0027572892199949 F F F
0.8729667821232627 0.2500711007654319 0.1268097188451365 F F F
0.1249633506067670 0.2523020075543600 0.1239840063246776 F F F
0.2530021367998094 0.8723470350029410 0.8755822955285053 F F F
0.7476470217126139 0.1269006994633106 0.1277263913058051 F F F
0.8713794496544596 0.0010254013331241 0.1321474798754283 F F F
0.8757084529669104 0.1147717463010093 0.0050320261116715 F F F
0.7447419685030835 0.0027740140221215 0.0058984532150239 F F F
0.2540644189337830 0.1266533416359879 0.1254999613793342 F F F
0.1193446203442960 0.9949891326937852 0.1221249628525189 F F F
0.1211155359218874 0.1211706469101048 0.0028614507794776 F F F
0.7475201042430660 0.8731225138569105 0.8752693521204723 F F F
