#comment
1.0
16.184 0.0 0.0 
0.0 16.184 0.0 
0.0 0.0 16.184 
Al Mg 
232 23 
selective
Direct
0.9954135484754471 0.9952879464392232 0.9942940978328275 F F F
0.7497712219259807 0.8740249034034544 0.8728985223129523 F F F
0.8742318495952043 0.7499497751231259 0.8728150316371404 F F F
0.8738705560140246 0.8740355712214974 0.7487185713799815 F F F
0.2508760719197490 0.9930578647875418 0.9917565493901833 F F F
0.7500679849444065 0.7500633229470437 0.7489115919857094 F F F
0.5016948636541896 0.8731929956124124 0.8720596563494133 F F F
0.6259021421008693 0.7497716829213874 0.8730273303101888 F F F
0.5046676481084900 0.9962679797672365 0.9953038895162366 F F F
0.6274142102378698 0.1236834777556915 0.9964007890691674 F F F
0.6275442870646561 0.9973123758279088 0.1229031054749459 F F F
0.5092174553586426 0.1234221394068695 0.1225816198759270 F F F
0.7493126107728567 0.9980069729651035 0.9973299736669368 F F F
0.8706900574772483 0.1236715755900537 0.9948106512286004 F F F
0.8706558732400852 0.9958774302916117 0.1225807441112453 F F F
0.7492641030125058 0.1239375466323517 0.1232247655159421 F F F
0.9929682272147365 0.2509272427709871 0.9911731400944134 F F F
0.6256287684007972 0.8740993432391073 0.7484740059085954 F F F
0.5012701658012941 0.7497545239963758 0.7486074881403039 F F F
0.2508558800899897 0.8722834526825430 0.8708706344318112 F F F
0.2509873167453270 0.2509416242379248 0.9867646286328476 F F F
0.3767501446545999 0.7493705785853340 0.8725536866816748 F F F
0.3766170907193470 0.8736328570545171 0.7484980049177197 F F F
0.2506485870181871 0.7493189798120402 0.7485542330351758 F F F
0.5073132502077543 0.2508599302731639 0.9942392348593344 F F F
0.6267868434112603 0.3772634633007975 0.9969143534184783 F F F
0.6284864241516460 0.2508706419910435 0.1232581201860848 F F F
0.5071882108021711 0.3787852151662292 0.1228956646360372 F F F
0.7479945641652826 0.2506134600211705 0.9961188651914199 F F F
0.8711001914906553 0.3774393748910557 0.9953711737074862 F F F
0.8673066554349644 0.2509612623232709 0.1217129547274501 F F F
0.7492063703723481 0.3768868129537205 0.1232747961402361 F F F
0.9963129477132815 0.5048461466317077 0.9953652131045234 F F F
0.1236958063360235 0.6270557149645739 0.9969309929007719 F F F
0.1230986468986269 0.5079713363445076 0.1238248600154728 F F F
0.9974282166556594 0.6269196674247626 0.1232072484382532 F F F
0.2508462035500776 0.5071955030527703 0.9945426885392743 F F F
0.3770670983026199 0.6268916103072190 0.9970518880368060 F F F
0.3787946071645732 0.5068995401954919 0.1229003389355757 F F F
0.2505662059080473 0.6284557926835748 0.1228862644714875 F F F
0.5034795400705003 0.5036292447486977 0.9965758419047884 F F F
0.6258983977202470 0.6260581515325737 0.9972488288155450 F F F
0.6270411553530741 0.5027874140088001 0.1229659242136133 F F F
0.5025754826604149 0.6270261360062233 0.1230154961388958 F F F
0.7492701865586799 0.5020904906255380 0.9974452555646272 F F F
0.8732423267206787 0.6266874288545967 0.9972080300058882 F F F
0.8709940043172799 0.5042811512317970 0.1227259281106793 F F F
0.7493029608276802 0.6264368049244243 0.1231238335257838 F F F
0.9980985206057501 0.7492820006538963 0.9976289417519472 F F F
0.1234984142565785 0.8711204213721846 0.9955271924823054 F F F
0.1237803997495087 0.7490389875643093 0.1229504904459589 F F F
0.9959559033174219 0.8710692161599817 0.1228719102463382 F F F
0.2503729101304770 0.7484780175545898 0.9963581801614902 F F F
0.3773364815908588 0.8711489656774538 0.9955284882160016 F F F
0.3766456307223923 0.7491177966381107 0.1229586169543326 F F F
0.2506398085920945 0.8677482268279174 0.1221548558067700 F F F
0.5019784113576324 0.7492729160984513 0.9973876115732365 F F F
0.6264408331522375 0.8732624846164923 0.9970941009091936 F F F
0.6262194739464128 0.7493540307559874 0.1231140946246967 F F F
0.5041808093858755 0.8710515209022058 0.1227370725995018 F F F
0.7497196374631362 0.7498443345795047 0.9977112228845837 F F F
0.8729544600560842 0.8728611336242734 0.9970855233905282 F F F
0.8734533586197576 0.7493383453073851 0.1231881317392851 F F F
0.7493543256679002 0.8732506528840891 0.1230927849808810 F F F
0.9927488749353052 0.9942148204760132 0.2503777612853590 F F F
0.9978950063864246 0.8728555405514093 0.8722264755160088 F F F
0.1240339338425121 0.7493218409147919 0.8731603097679719 F F F
0.1240092630137432 0.8725851189865717 0.7491843224166717 F F F
0.2509452387819417 0.9886337399002513 0.2500488828130332 F F F
0.9984616189251982 0.7497967276040879 0.7486615418552751 F F F
0.7496046096445981 0.6258441454121357 0.8729379157085759 F F F
0.8730121309398329 0.5019872667104144 0.8722419437097931 F F F
0.5075616691041653 0.9956833309358534 0.2499209252419962 F F F
0.6286650398187736 0.1240397943979840 0.2500347868370088 F F F
0.6269804076942644 0.9981128586397766 0.3761306298132555 F F F
0.5070926895845780 0.1244097070379551 0.3780334417419488 F F F
0.7486486082190135 0.9975185560376296 0.2497085141578534 F F F
0.8681478309431319 0.1229233039424734 0.2506530034194056 F F F
0.8730173486184919 0.9983742937944847 0.3764775390697623 F F F
0.7492312970469543 0.1239202209463506 0.3759363910883068 F F F
0.9860468917321425 0.2509597842541225 0.2472266337005769 F F F
0.8739140627335866 0.6258556773503603 0.7485695596752198 F F F
0.7494695380555157 0.5014646491773985 0.7486549989226121 F F F
0.5013682306244623 0.6260886804724936 0.8724696965938913 F F F
0.2526207886701293 0.2522267706422748 0.2545569559211622 F F F
0.6259358205756202 0.5017449379153001 0.8724916928108685 F F F
0.6253304941407767 0.6256199506820118 0.7483145271655630 F F F
0.5018444912112461 0.5017730597684159 0.7481845244493750 F F F
0.5099937669658072 0.2513971281376650 0.2517082905363804 F F F
0.6276675832147415 0.3772921887435906 0.2500152132755877 F F F
0.6282855363053149 0.2508814517919243 0.3763496859395674 F F F
0.5050201062743638 0.3778705351889893 0.3777024507958031 F F F
0.7478858963796969 0.2505560731122037 0.2496166064428588 F F F
0.8693453184624197 0.3783523218915749 0.2505657262387908 F F F
0.8693084109916737 0.2509032431993074 0.3773248095388850 F F F
0.7492076779171549 0.3767934167920459 0.3757632321731229 F F F
0.9960960768622785 0.5055465241322955 0.2507400231027995 F F F
0.1236102724627508 0.6287090148471598 0.2496555047391119 F F F
0.1223243772786966 0.5078232722374540 0.3763845233134311 F F F
0.9975650608117904 0.6269277934011707 0.3758358224892787 F F F
0.2507656812239187 0.5105330540963691 0.2499204255821055 F F F
0.3770955782174439 0.6276934215360833 0.2498333170197337 F F F
0.3791411441623601 0.5061258150834337 0.3770950482693708 F F F
0.2505536575232418 0.6276190338806624 0.3761718521759717 F F F
0.5048368970307604 0.5045901918049479 0.2497138561621492 F F F
0.6264191433728700 0.6264778697661845 0.2496124141884650 F F F
0.6264969250713467 0.5019740747463975 0.3759030319692028 F F F
0.5023791469535054 0.6267252732819478 0.3758483602741746 F F F
0.7485735133532381 0.5026772660660744 0.2496971260093564 F F F
0.8731424367601355 0.6265087947873782 0.2498533054983944 F F F
0.8731449577063847 0.5017070162095451 0.3761811404902332 F F F
0.7498569611663232 0.6255708113437902 0.3753943718031469 F F F
0.9973016515367559 0.7484208258150606 0.2494141573406285 F F F
0.1229637777332068 0.8673079700544097 0.2497184937207728 F F F
0.1237214403947781 0.7489637887583305 0.3760020342244536 F F F
0.9960204557363773 0.8709009380227136 0.3761520955836981 F F F
0.2503852759117910 0.7475748877047178 0.2496603986086470 F F F
0.3778599898279161 0.8687015121904842 0.2498732412908259 F F F
0.3766372155043768 0.7491055276589959 0.3757194379742403 F F F
0.2507776550884155 0.8686609260253835 0.3770028537160829 F F F
0.5026490975627903 0.7484981867318312 0.2495761855766076 F F F
0.6272303719666013 0.8726820156443337 0.2496920104757353 F F F
0.6266529279647634 0.7494283179263505 0.3754153235293300 F F F
0.5038342957963646 0.8714290342629267 0.3763203825467715 F F F
0.7496322197778089 0.7493193124925795 0.2494574269079649 F F F
0.8722421026532474 0.8725168029261069 0.2498314635893915 F F F
0.8733410512940790 0.7493584626486720 0.3754520446284819 F F F
0.7499683317197333 0.8740657256330531 0.3754710919731137 F F F
0.9950396571478353 0.9954872228134987 0.5033547404009187 F F F
0.1202486013323548 0.1126453540913070 0.5103238279826110 F F F
0.1233383937590340 0.9949638435214326 0.6292344777967005 F F F
0.9964912848669211 0.1235860459571573 0.6276074815666729 F F F
0.2505758485975020 0.9935306941603556 0.5067870884633090 F F F
0.3790364804400559 0.1216401308469433 0.5064275849472631 F F F
0.3771401582523110 0.9973380311299346 0.6262077161785199 F F F
0.2509847273619511 0.1266525480427307 0.6226073460895737 F F F
0.5036381199177408 0.9978296870488566 0.5024778324557637 F F F
0.6272560095560659 0.1239929200003104 0.5016336838325240 F F F
0.6260164689036233 0.9982368922791132 0.6248239715132226 F F F
0.5029267720306265 0.1240208562799674 0.6260250637631365 F F F
0.7497291158895538 0.9984302530295504 0.5007082116182384 F F F
0.8723072970402732 0.1242724209296695 0.5027027749212398 F F F
0.8731840413826988 0.9981181978000014 0.6255149992572878 F F F
0.7495057396442849 0.1238404888141066 0.6251069469359714 F F F
0.9994844722706263 0.2509912599728384 0.5078249349823970 F F F
0.1206464588588973 0.3909763630154620 0.5080758830983937 F F F
0.1261788455568718 0.2509110467010726 0.6249081836040600 F F F
0.9971312564277561 0.3775512752119741 0.6268715698887761 F F F
0.1777543250569793 0.2520257709092674 0.4575252035530472 T T T
0.3788543119331333 0.3803412425286228 0.5043137406218919 F F F
0.3736919030240801 0.2509250653648517 0.6199217684886881 F F F
0.2509778411220040 0.3740796300003770 0.6205587801968079 F F F
0.5047765026097084 0.2507025868232233 0.5034521315745052 F F F
0.6267009172072874 0.3770040938472322 0.5009396768080665 F F F
0.6265427051880201 0.2507970830559682 0.6251321693069992 F F F
0.5022990226016754 0.3769271598285989 0.6253355858226048 F F F
0.7489552844614459 0.2505782822853779 0.5017898800196599 F F F
0.8726374217479084 0.3767420429075692 0.5020792390176797 F F F
0.8730133315955065 0.2508651927948317 0.6259130364867398 F F F
0.7495229749530611 0.3770332342964008 0.6248686884976580 F F F
0.9953523752146238 0.5046350120520262 0.5018876132682618 F F F
0.1233500473388519 0.6268263202381181 0.5016353221234142 F F F
0.1235275021212773 0.5053587161349006 0.6286995170842329 F F F
0.9977727666725188 0.6262982157053515 0.6251053030820626 F F F
0.2512554180477539 0.5068559236998869 0.5043898365588321 F F F
0.3772644267594089 0.6269466720163815 0.5009789731183278 F F F
0.3770579849959664 0.5026277189682631 0.6257213429983075 F F F
0.2507328874078480 0.6269781624302250 0.6256484503132170 F F F
0.5023194736241042 0.5022992889526170 0.5010112993799047 F F F
0.6258849838836971 0.6257084422104682 0.4999522869135863 F F F
0.6256215876193855 0.5013527200283251 0.6242924813073153 F F F
0.5013885716583855 0.6255223788533922 0.6243835248883144 F F F
0.7496367186057147 0.5015961720170110 0.5003260507848198 F F F
0.8729813969794175 0.6264187730385127 0.5002731771831466 F F F
0.8733618678352322 0.5015968988323928 0.6250783730083588 F F F
0.7494294208569531 0.6257305656476531 0.6244261877488559 F F F
0.9979868238855767 0.7491922395269064 0.5008504697622833 F F F
0.1231794542869406 0.8709787356298742 0.5033199603065540 F F F
0.1236933554482372 0.7492756103963850 0.6252372149943578 F F F
0.9976391201562499 0.8730526031371258 0.6256314611255400 F F F
0.2503075940764277 0.7484437054296048 0.5017434521907506 F F F
0.3773527247945737 0.8713116763315176 0.5026226924399463 F F F
0.3769940588223295 0.7494367367606168 0.6251889223816012 F F F
0.2506745778570625 0.8722620305127776 0.6265252093489484 F F F
0.5019518144734043 0.7493582718487772 0.5005125552869278 F F F
0.6264410544386136 0.8736034047047825 0.5003665540799712 F F F
0.6255215230165228 0.7496906267473505 0.6244970582473557 F F F
0.5017388600357575 0.8737223578709520 0.6249629606619719 F F F
0.7494816391636159 0.7498591783848551 0.4999141373013019 F F F
0.8727827698536755 0.8730428684619399 0.5007260971958636 F F F
0.8738435813013552 0.7497599818356592 0.6245825024846841 F F F
0.7496204126545960 0.8740413796650768 0.6247513646687329 F F F
0.9976599594412666 0.9979028097983466 0.7487607088246453 F F F
0.1244487051363649 0.1243495143886237 0.7468415604892206 F F F
0.1239821407918535 0.9960542338928183 0.8692555707399222 F F F
0.9962018394964161 0.1236878817920974 0.8692684113481772 F F F
0.2506863353120953 0.9990849636645053 0.7462049639349556 F F F
0.3766146821172276 0.1244678909123956 0.7467344257046987 F F F
0.3770878051702283 0.9968217983999283 0.8696915661280071 F F F
0.2509894337279024 0.1233531771615365 0.8658381495869240 F F F
0.5021223298178803 0.9981586070230153 0.7482583647514907 F F F
0.6262077879188386 0.1241783414944292 0.7481674685392993 F F F
0.6263178415724457 0.9979511949526315 0.8723167837348909 F F F
0.5039083196248437 0.1239455264566084 0.8694684038469997 F F F
0.7495386062264847 0.9984623918426583 0.7486647394881646 F F F
0.8729899757164912 0.1241166092209231 0.7486618268793179 F F F
0.8728179912541207 0.9978918636751292 0.8721447397545138 F F F
0.7490745215381178 0.1239606823927000 0.8723525230468716 F F F
0.9982694004498009 0.2506655712621867 0.7468567963135844 F F F
0.1244866436532918 0.3766480834958996 0.7466410717970442 F F F
0.1233121432317272 0.2510512181978692 0.8657465415993726 F F F
0.9966673965939959 0.3773687867684820 0.8698431239744887 F F F
0.2509437159116037 0.2507185897281521 0.7444052367499302 F F F
0.3764247267691838 0.3764017724949218 0.7465810991989259 F F F
0.3779974927465705 0.2509679931158458 0.8670609691827330 F F F
0.2509376880735234 0.3779121151948104 0.8669691507153516 F F F
0.5009203481309512 0.2506575173381024 0.7456230772803760 F F F
0.6258955461613812 0.3766820009466843 0.7481196650092869 F F F
0.6266875594276641 0.2508131705961648 0.8710813022054703 F F F
0.5032863161561422 0.3770534031333704 0.8699557967185571 F F F
0.7492012488003279 0.2506110277149759 0.7480793687631913 F F F
0.8732531394625180 0.3767500891697016 0.7486292925053841 F F F
0.8720372241789947 0.2508205970905157 0.8707659859311897 F F F
0.7491007569401680 0.3768622730156317 0.8724706814650585 F F F
0.9978146376945859 0.5021793251933900 0.7486084196606155 F F F
0.1240442639073174 0.6270593260952341 0.7491976225843486 F F F
0.1239029390513222 0.5041310068977713 0.8696220637991022 F F F
0.9978860107001848 0.6266810007086473 0.8725136175972837 F F F
0.2506982660451545 0.5010805767144125 0.7459798171166583 F F F
0.3766288183474394 0.6258672649496004 0.7484087036358219 F F F
0.3770136252500950 0.5032414225049249 0.8699614970279832 F F F
0.2508464704737033 0.6267878955723243 0.8715118451566476 F F F
0.2500407702065991 0.3845669631588740 0.3794937912978334 F F F
0.3753468061841159 0.2507344854931156 0.3848602235448427 F F F
0.3803249149457783 0.3796759153723727 0.2506470062967942 F F F
0.0007861177919484 0.3712849892521474 0.3784862678712200 F F F
0.1235384013081265 0.1231956750755687 0.9905068744709791 F F F
0.1238815832109282 0.3756197024682691 0.2523393232124654 F F F
0.2494190138106384 0.1198462903883393 0.3809735113692321 F F F
0.3788104663206333 0.9950232947080405 0.3770833884071162 F F F
0.3815839187138400 0.1244962584654113 0.2507723607556385 F F F
0.9992092101508514 0.1303783321085434 0.3790693403657464 F F F
0.1224003667678438 0.9925947718892704 0.3760279558906534 F F F
0.1230147538403790 0.1298188069643502 0.2533353174619446 F F F
0.2505341687168127 0.3813410736432379 0.1233110264955599 F F F
0.3817431207993345 0.2507043415917325 0.1227963434597794 F F F
0.3781514547767954 0.3783093568594993 0.9944226456217421 F F F
0.9941258535742354 0.3789455284237707 0.1225597453620723 F F F
0.1229685387630335 0.2506282802779267 0.1206060200115246 F F F
0.1239428319791685 0.3789721871133996 0.9924291292767359 F F F
0.2503997727440951 0.1231534479505104 0.1227609777324864 F F F
0.3786020264730539 0.9941910696674224 0.1230412706254063 F F F
0.3785792476098651 0.1237492877130998 0.9926310563510319 F F F
0.9923431792221540 0.1232236481686803 0.1222794524137482 F F F
0.1232279921542099 0.9933922320493650 0.1239809725810274 F F F
