#comment
1.0
16.184 0.0 0.0 
0.0 16.184 0.0 
0.0 0.0 16.184 
Al Mg 
245 10 
selective
Direct
0.9994932762923605 0.9995689149959409 0.5006201678067280 F F F
0.8742298095298585 0.7467373730431131 0.8750766721466346 F F F
0.1232757602483046 0.9962923922433802 0.1312726670584599 F F F
0.0015499457725510 0.1251950057800081 0.1364113937167962 F F F
0.2540774808910214 0.9982260543626180 0.9995528499966585 F F F
0.3775901715411765 0.1257211316534569 0.9982077322415882 F F F
0.3777741921894333 0.9979087322327700 0.1261464347593300 F F F
0.8727458452810689 0.8710279162714892 0.7444312217123138 F F F
0.4997857904765448 0.9997004490199146 0.0003804079180799 F F F
0.6233396096689484 0.1250191435498058 0.0013953603432333 F F F
0.6238944872826905 0.9989855201665405 0.1266519348893782 F F F
0.4993156597054534 0.1251629693124746 0.1256836972504925 F F F
0.7529370579798605 0.9990337443696833 0.0047525977998933 F F F
0.9394780500041102 0.0620653087623695 0.0005647915408266 T T T
0.8718377587606653 0.9979431775981829 0.1347504377074407 F F F
0.7477892465906025 0.1234473228923381 0.1241281160356788 F F F
0.9995321227869677 0.2514690446421662 0.9969610056646026 F F F
0.1250249626393936 0.3768183559249132 0.9992483434055734 F F F
0.1244698103136272 0.2552390793764971 0.1253957204756165 F F F
0.9998911605761848 0.3769216616394459 0.1252357828950360 F F F
0.2512282417874452 0.2531583284693515 0.9985992129140447 F F F
0.3757733434327706 0.3762006594002434 0.9995907660292995 F F F
0.3774565392073811 0.2524963324495998 0.1252922344629661 F F F
0.2510580558894175 0.3768558851433347 0.1253356993716720 F F F
0.5002433078900015 0.2510407189298765 0.9998266670163639 F F F
0.6238646502129547 0.3762129200851577 0.0001027315686342 F F F
0.6236667188162235 0.2509617761976050 0.1262142861940397 F F F
0.5003436235188199 0.3759022753430067 0.1253864629736118 F F F
0.7465633281882408 0.2534454302897481 0.0000546496034945 F F F
0.8746477308234185 0.3773297968468329 0.9994138769025610 F F F
0.7488808180299424 0.7477441428071211 0.7481533898278868 F F F
0.7486920197649650 0.3763306931540841 0.1258018328889931 F F F
0.9997715896958436 0.5004481367216845 0.0001399139747061 F F F
0.1251190169954495 0.6237789330823524 0.0017487961035277 F F F
0.1252187801285241 0.5001793310852352 0.1257716637300349 F F F
0.9991104174023955 0.6240931581167979 0.1265913272412303 F F F
0.2506694215567150 0.5001642124683540 0.0002951191963813 F F F
0.3759160909824809 0.6246808835935819 0.0002358845340933 F F F
0.3756749843950262 0.5006025286958301 0.1254518263314275 F F F
0.2508638076463806 0.6244388983913185 0.1262187685358740 F F F
0.5000446766114118 0.5004265611386425 0.0001514047765769 F F F
0.6247943207176156 0.6244762468509079 0.0005263458673720 F F F
0.6246713482006147 0.5003115631229574 0.1257058984764652 F F F
0.5002140265169397 0.6247880502141427 0.1257471179089385 F F F
0.7489224612655420 0.5003763775307464 0.0001892154813992 F F F
0.8738166039595192 0.6235781087186070 0.0009197075551008 F F F
0.8739589426627633 0.5001239744111352 0.1257647909448126 F F F
0.7494541534685449 0.6244332423908016 0.1261626068855259 F F F
0.9966955787118168 0.7479343934026517 0.0026863161478542 F F F
0.5002174528913578 0.8744996147780284 0.8747585715069720 F F F
0.1248303696964244 0.7480982539390442 0.1271739018627135 F F F
0.9974215227466565 0.8748209029603579 0.1301510419098916 F F F
0.2522922435792975 0.7489685531825778 0.0018877696172364 F F F
0.3771038804258275 0.8737512191061992 0.0003024979612999 F F F
0.3760324043674327 0.7491589501639460 0.1261767528782881 F F F
0.2519890591193368 0.8731532737707732 0.1274456624846978 F F F
0.4999146688946407 0.7491473910076298 0.0005498129829254 F F F
0.6236035596972294 0.8745692108978295 0.0021334618318235 F F F
0.6246208727077032 0.7488053259843886 0.1261947798181750 F F F
0.5001972267025204 0.8737055692610555 0.1262452266976199 F F F
0.7505716057627735 0.7486710610218058 0.0018442849287045 F F F
0.8794790512800841 0.8790334898297544 0.0033394178941815 F F F
0.8735134682390925 0.7491578351049200 0.1267349548616065 F F F
0.7491819779007819 0.8730389058021362 0.1265089650838682 F F F
0.9983616950291812 0.9976979802534646 0.2557686619573222 F F F
0.6233321083605114 0.7480544669732283 0.8748343132720809 F F F
0.1253498448791170 0.9978037708785867 0.3781000407855881 F F F
0.9981396136179286 0.1256597594852458 0.3778415695218065 F F F
0.2520452790884459 0.9969137069195041 0.2529060082511108 F F F
0.3771228247324275 0.1251480571668200 0.2522190647144314 F F F
0.3766952562058020 0.9991795351794003 0.3759317838921397 F F F
0.2532115574382152 0.1254460451027878 0.3774347602934503 F F F
0.5005523586809093 0.9994316379826826 0.2508616107198329 F F F
0.6246066474587612 0.1252021563262414 0.2501455864003788 F F F
0.6238401291186314 0.9998215922495511 0.3755320440501693 F F F
0.5005820895191901 0.1255790973172092 0.3755397614171342 F F F
0.7474724749113478 0.9989607256452721 0.2526540012616296 F F F
0.8724582931015070 0.1246084716776937 0.2537336830660000 F F F
0.8734842890955177 0.9990754339964065 0.3767318297601109 F F F
0.7483922834778677 0.1252786427929806 0.3758642421378718 F F F
0.9991592285265076 0.2531276542501989 0.2532212845571292 F F F
0.1255212944855305 0.3766580069293137 0.2513331604351189 F F F
0.1255193290520990 0.2531063377713191 0.3775864466999978 F F F
0.9995046593615886 0.3769427692847902 0.3757637992082171 F F F
0.2524358225239516 0.2538321494390811 0.2521550392313607 F F F
0.3761933799555330 0.3765047677245579 0.2506152105200856 F F F
0.3763824063769898 0.2512666152668614 0.3760791914588710 F F F
0.2508910860170750 0.3763913414649753 0.3757262093698305 F F F
0.5004023811745119 0.2507594016080935 0.2506786408111235 F F F
0.6242978106372262 0.3759415780470977 0.2507741210032255 F F F
0.6246184669161975 0.2506052686781780 0.3750530639136667 F F F
0.5002364142701003 0.3754913451245511 0.3751824271690710 F F F
0.7482498153350938 0.2505620022777245 0.2509488583344616 F F F
0.8740489444843406 0.3753527434852496 0.2499414329524822 F F F
0.8737270555242409 0.2511967813169987 0.3754126264172390 F F F
0.7494223141237135 0.3755264890029516 0.3748681232119691 F F F
0.9995253183883391 0.5000988846745636 0.2504251176752236 F F F
0.1250686148110664 0.6243457690155970 0.2509905123287556 F F F
0.1254196903090243 0.5001152220992767 0.3753811634629131 F F F
0.9996148050573213 0.6240960292825624 0.3750740293870172 F F F
0.2506973877905955 0.5003502928086307 0.2506138851889014 F F F
0.3756417573404281 0.6249525518509920 0.2507442612843570 F F F
0.3756215121843783 0.5001741378617706 0.3751356569013682 F F F
0.2505474266405599 0.6245996082776332 0.3753496084373870 F F F
0.5001673356749066 0.5001909986299874 0.2503738582309755 F F F
0.6245686598666503 0.6245414250964736 0.2507526879679572 F F F
0.6249113335812196 0.4998849323719120 0.3749693388007267 F F F
0.5000463361986607 0.6248016385363027 0.3751351345217403 F F F
0.7494341014262735 0.5003507470476447 0.2507309098941194 F F F
0.8743045720331464 0.6246291315490434 0.2507022788227448 F F F
0.8742379106907427 0.5000174209894007 0.3746626469375202 F F F
0.7494331576242033 0.6244360340251535 0.3752502800524420 F F F
0.9994321495055449 0.7493429705165161 0.2511110830580547 F F F
0.1254159525586186 0.8724701943477563 0.2530100773854641 F F F
0.1252009172867225 0.7486283319934767 0.3756105567805013 F F F
0.9994792652256329 0.8732075312870988 0.3767078627352036 F F F
0.2508150027739600 0.7486424370532198 0.2513491113461756 F F F
0.3762206645356647 0.8735356835577599 0.2511861949488358 F F F
0.3755389126030344 0.7493480243104387 0.3752982992999675 F F F
0.2509464797864387 0.8735070643326651 0.3758417510960141 F F F
0.5001428690516911 0.7491973084706279 0.2507003474177064 F F F
0.6245754490567279 0.8736501955623681 0.2508954551291868 F F F
0.6245955091743047 0.7492574008515850 0.3752260959395126 F F F
0.5001522966436757 0.8741427720012278 0.3751489067605288 F F F
0.7491170553262129 0.7488767219556327 0.2511973775128400 F F F
0.8731968301376538 0.8724427185681695 0.2531831141303747 F F F
0.8743897729594234 0.7484851062125861 0.3756093863502652 F F F
0.7488294342694618 0.8738507121919704 0.3756513610994145 F F F
0.6232611172070341 0.8741519103828210 0.7480337068513666 F F F
0.1258955653403778 0.1261411745501502 0.4989345248998606 F F F
0.1276603707860106 0.0003208667538570 0.6217754582116530 F F F
0.0002011266261941 0.1277901287242678 0.6214317901244698 F F F
0.2518851831891838 0.9995443592455746 0.4998428787881097 F F F
0.3766684286897806 0.1254997800396215 0.5005743355791755 F F F
0.3763837594728671 0.9998389833868273 0.6243493007894818 F F F
0.2517107182716275 0.1259796159978452 0.6233717025512296 F F F
0.5001056162738918 0.9998723376369341 0.5000069014664212 F F F
0.6244503501215164 0.1258194083439564 0.5000153922384888 F F F
0.6239335987614429 0.0001077472719391 0.6237265314974150 F F F
0.5005940523405782 0.1255588448493108 0.6249900632080287 F F F
0.7483567369655244 0.9996395303845135 0.4995379847137717 F F F
0.8734222549083963 0.1259627044299727 0.4996797147345051 F F F
0.8722275110900212 0.9996379683965126 0.6212938455191693 F F F
0.7484049016041125 0.1261042555638963 0.6236318360866596 F F F
0.9994831588970815 0.2518914018752979 0.4998271642139970 F F F
0.1255279991724380 0.3764387712355361 0.5000289790579165 F F F
0.1258705672063167 0.2519536708518733 0.6232953261960892 F F F
0.9998555926346391 0.3767827577267723 0.6236264333442140 F F F
0.2513528208951303 0.2513954570304876 0.5003037110887931 F F F
0.3756015983793339 0.3755741594961025 0.5001349930981226 F F F
0.3758944214516951 0.2508177448398700 0.6246234223799921 F F F
0.2507637068452845 0.3757800557820103 0.6244708947019344 F F F
0.5003335425532797 0.2507529218406109 0.5002314174847793 F F F
0.6249101599416714 0.3752321764665912 0.4999543351323182 F F F
0.6246439450378873 0.2510446001455906 0.6246272188211970 F F F
0.5000412857683373 0.3753660739348407 0.6245528434088067 F F F
0.7491137107546023 0.2511390758264891 0.4998106409885475 F F F
0.8740987686580173 0.3758508505681876 0.4996085017742025 F F F
0.8740622888738965 0.2520293764887877 0.6234667470100209 F F F
0.7495701686257584 0.3756630160235885 0.6246770724998254 F F F
0.9996203427284815 0.5004530563639965 0.4995347173473068 F F F
0.1255037541689974 0.6243158469465185 0.4997771583785749 F F F
0.1255609471618642 0.5000245996770974 0.6240481027080310 F F F
0.9996195667641268 0.6240831824470759 0.6237231135707249 F F F
0.2507659833522755 0.5000992881586003 0.5000322914856963 F F F
0.3757216823172062 0.6248137058171936 0.5000656839851852 F F F
0.3755595729508825 0.5000699269078537 0.6246741775424166 F F F
0.2511512247557553 0.6244577726155277 0.6239710701882012 F F F
0.4999228139259800 0.5000361764413682 0.4999725813856021 F F F
0.6248183290145883 0.6247841256539625 0.4998706013571475 F F F
0.6247789700497320 0.4998625578332933 0.6243300871392625 F F F
0.5001439019243776 0.6248011696449706 0.6246208098186486 F F F
0.7492316577082916 0.4997950634895204 0.4996511399201208 F F F
0.8739916305225641 0.6239361446793159 0.4995034609028935 F F F
0.8741351837745459 0.5000836863986778 0.6242978604931838 F F F
0.7493938282803931 0.6244831849501227 0.6240955097996369 F F F
0.9998146881417833 0.7482377164666223 0.4994326227733712 F F F
0.1260135567826000 0.8734117314222937 0.4998640385030792 F F F
0.1256320558920967 0.7480057187082109 0.6236216446403513 F F F
0.9997526041276432 0.8720738661606430 0.6210414655981774 F F F
0.2509172160833087 0.7490120648244534 0.4999750452503827 F F F
0.3760386658114977 0.8740157879289099 0.4997705905141158 F F F
0.3759752215646619 0.7497409769843926 0.6243467518150964 F F F
0.2520115468892759 0.8741877638957056 0.6232083536651621 F F F
0.5001923786353517 0.7493795530618934 0.4998216981036894 F F F
0.6243473620820271 0.8741919572441937 0.4997110823318387 F F F
0.6243884744191318 0.7490231479784245 0.6242351964650635 F F F
0.4999798593047786 0.8743572667755273 0.6241044673712867 F F F
0.7492878089985644 0.7489166298090592 0.4997740289902229 F F F
0.8736558958631112 0.8735754728614641 0.4993257406410322 F F F
0.8740202422465063 0.7478911979048254 0.6229240551883253 F F F
0.7483142671847486 0.8737074017820234 0.6233458343941088 F F F
0.4997864491690730 0.7492932932496963 0.7492017794608169 F F F
0.1274613420834902 0.1286549581431504 0.7462183229695935 F F F
0.2544433490289816 0.8743138292269155 0.8735155770651922 F F F
0.9980443976763551 0.1329693894196986 0.8648045067310930 F F F
0.2523371145778803 0.0003641438896266 0.7472648062490789 F F F
0.3762286729769499 0.1256454044535633 0.7489704102368959 F F F
0.3770152668950698 0.0001217980658233 0.8736596415472646 F F F
0.2524357590163412 0.1268204636426597 0.8738152468659000 F F F
0.5000352937176138 0.0001396136874352 0.7492800735104101 F F F
0.6251427638548108 0.1259373044267577 0.7494699491056603 F F F
0.6229154253398613 0.0004904644705760 0.8751759699625680 F F F
0.5004189916431016 0.1260448027958433 0.8742075969770893 F F F
0.7484330759456519 0.0000977550992034 0.7464938586226313 F F F
0.8735768687004818 0.1278797558356292 0.7451338233838266 F F F
0.8751190285997489 0.9958448341330449 0.8669284313290817 F F F
0.3760955842299361 0.7490599057754393 0.8745029450502408 F F F
0.0003170993572607 0.2544988613066546 0.7459722475767473 F F F
0.1258948826270437 0.3765510264966688 0.7488482105792281 F F F
0.1264419230140090 0.2528971387011213 0.8729347691805927 F F F
0.0006195648095780 0.3773843949037486 0.8735752889170425 F F F
0.2514373748628929 0.2516972557179936 0.7484687565267928 F F F
0.3756500440677011 0.3757302051356322 0.7493242726723179 F F F
0.3760678460823265 0.2513498297564887 0.8738482447826801 F F F
0.2507164109852411 0.3765351088280919 0.8740416156679229 F F F
0.5000573924532746 0.2509120349877331 0.7490898518653477 F F F
0.6243738021890926 0.3758977570126203 0.7488835392372870 F F F
0.6240604762065117 0.2513721221709463 0.8740625840026558 F F F
0.5001273266345663 0.3755692904292598 0.8745430005687486 F F F
0.7493746688201582 0.2517904360560565 0.7488919708626167 F F F
0.8744317353106874 0.3760804328411108 0.7492191783291193 F F F
0.8751314980423675 0.2542369765445851 0.8757516969295492 F F F
0.7486229686690750 0.3767086348354796 0.8738651804312103 F F F
0.9996375366131435 0.4999245408411980 0.7488286947550992 F F F
0.1253854556362677 0.6233295280327568 0.7478569658396824 F F F
0.1255986061727257 0.5006353645362364 0.8744935850236498 F F F
0.9985775035423671 0.6229883157109771 0.8742810561336035 F F F
0.2510448031581810 0.4999161111732500 0.7489218980302784 F F F
0.3762013481785714 0.6244740380068837 0.7489603671225321 F F F
0.3757996125195358 0.4999105636099269 0.8744609842988587 F F F
0.2521523283848808 0.6233887696826990 0.8744149144410411 F F F
0.5001258510324342 0.4997971093806339 0.7494062317984068 F F F
0.6242319318968391 0.6241444265847734 0.7488606221527339 F F F
0.6244789503154817 0.4999999198799220 0.8745361043408038 F F F
0.4998343984821491 0.6242999674050200 0.8745513403929360 F F F
0.7493787786354809 0.5002478575524530 0.7489982911591071 F F F
0.8741354895835627 0.6242524425969128 0.7486302224764969 F F F
0.8740650784262939 0.5003325669646156 0.8743823804094897 F F F
0.7488022493554749 0.6244016875215317 0.8744517211821402 F F F
0.9988499455175309 0.7485126281711436 0.7472297942514730 F F F
0.1275213191370310 0.8724948837263758 0.7443754502721902 F F F
0.3767188739407153 0.8744826077106204 0.7487592033275319 F F F
0.9940925383716197 0.8714805038122316 0.8721967489935227 F F F
0.2526493944199646 0.7483817280552085 0.7474952222117363 F F F
0.1254602336900817 0.7492409295703295 0.8741876476267038 F F F
0.7555599208563392 0.1246264775064108 0.8803199478069148 F F F
0.1229912666128121 0.9991146726356531 0.8719021188150056 F F F
0.9994516777683872 0.9995899039920100 0.7432937725189649 F F F
0.7490710801663494 0.8739966330794541 0.8756451457360644 F F F
0.1267418284896526 0.1260141506288808 0.2549406680262173 F F F
0.1197215192401214 0.8780786427246962 0.0032212512638409 F F F
0.8741697482589273 0.2453887481607313 0.1205764413672311 F F F
0.2526519340943334 0.1255823620444524 0.1254695169406023 F F F
0.1192512461701533 0.1221055840508301 0.0014317945509181 F F F
