#comment
1.0
16.184 0.0 0.0 
0.0 16.184 0.0 
0.0 0.0 16.184 
Al Mg 
232 23 
selective
Direct
0.9960021268022158 0.9968523978214989 0.9928500799062701 F F F
0.1227034805877261 0.1237603046791628 0.9873419825728097 F F F
0.7495678933719933 0.8740294973539404 0.8730967983410223 F F F
0.8740449235378024 0.7494881426481103 0.8730907708244712 F F F
0.2509911404676258 0.9956141064395584 0.9901539823688400 F F F
0.3795134825337238 0.1238903806468946 0.9901791742873670 F F F
0.8738721553447800 0.8738551599124296 0.7489286103424474 F F F
0.7497899189204936 0.7497913062430275 0.7489992330426386 F F F
0.5037816619210779 0.9977666611873174 0.9947835042083952 F F F
0.6272060415920480 0.1242088566073531 0.9959544759538970 F F F
0.6268979332796708 0.9979517285427384 0.1224269293068986 F F F
0.5078239272707056 0.1238850325869557 0.1194434578824158 F F F
0.7487622226961946 0.9983640089879681 0.9965561122008740 F F F
0.8702604089877962 0.1242714994418254 0.9936537068472433 F F F
0.8700928888508702 0.9963069922609245 0.1206996192181096 F F F
0.7481492475141363 0.1240756899451177 0.1221882473678433 F F F
0.9952379093911244 0.2516338060479259 0.9901216752169757 F F F
0.1232936992587719 0.3797389825629097 0.9902935947655548 F F F
0.5016410010622525 0.8734098819262202 0.8726369563391513 F F F
0.6256013857358127 0.7495647703642039 0.8732870214259830 F F F
0.2510037493894434 0.2521941858821403 0.9873945504122863 F F F
0.3784652898578596 0.3791457206908092 0.9929562909868399 F F F
0.6257095301726032 0.8741955417704492 0.7488510862039760 F F F
0.5011028055588660 0.7493836206354215 0.7490594186275161 F F F
0.5049587462546357 0.2511047857147816 0.9932042402305783 F F F
0.6267583605309540 0.3768145912449198 0.9966399842159921 F F F
0.6269966276695250 0.2512385947288112 0.1213220334517720 F F F
0.5053236682111274 0.3792034583968712 0.1201356176325503 F F F
0.7484863184767100 0.2509168238074138 0.9961980322273151 F F F
0.8713375872461817 0.3772361289387569 0.9946909931547137 F F F
0.8677460260140206 0.2515826368136482 0.1211557900947298 F F F
0.7492464071967744 0.3771760182086388 0.1231712062342687 F F F
0.9977145995097020 0.5035945570911697 0.9948159589108906 F F F
0.1240420149469126 0.6268417746289402 0.9964011480947952 F F F
0.1233817241290614 0.5073731735106531 0.1208472678570936 F F F
0.9978959380804435 0.6258293571960618 0.1233334541719016 F F F
0.2506838693676020 0.5048837040523481 0.9936694342091854 F F F
0.3766513067291706 0.6264107592309127 0.9967264582867069 F F F
0.3787970471126786 0.5054089303148597 0.1203364401473628 F F F
0.2509181116126074 0.6273265441869493 0.1219837761828709 F F F
0.5022262542922777 0.5024240673154924 0.9962598961330579 F F F
0.6256050502828397 0.6255827110355936 0.9974478296359292 F F F
0.6267862297041548 0.5020314290355748 0.1222498441955685 F F F
0.5020624629769200 0.6265052161365796 0.1222789473638943 F F F
0.7491887230726260 0.5014292824864698 0.9968251356179498 F F F
0.8736168691168932 0.6259623971010461 0.9969158670544137 F F F
0.8709941228322408 0.5041007723663886 0.1217861965865486 F F F
0.7490607784218428 0.6261097940640271 0.1224307292277199 F F F
0.9982417151185374 0.7485339226853004 0.9968037295774608 F F F
0.1238887392794378 0.8702842447439075 0.9936852114891833 F F F
0.1238195725990112 0.7476863712016883 0.1222951892973771 F F F
0.9959000482944401 0.8698917209986321 0.1207871276532989 F F F
0.2507562167734581 0.7480505394923580 0.9962648806754854 F F F
0.3770918034335309 0.8712919338799066 0.9947741843355065 F F F
0.3770503853313904 0.7482751023447803 0.1224503916537797 F F F
0.2509809729836541 0.8673117005785608 0.1199269772873035 F F F
0.5013692869800974 0.7490660243495130 0.9970956179197097 F F F
0.6259697271058777 0.8735704348899462 0.9969440150862595 F F F
0.6258616369914478 0.7492414511893670 0.1225858459619107 F F F
0.5038387548646358 0.8712996284342265 0.1216979917320386 F F F
0.7495322510200499 0.7494775449526923 0.9974451486543803 F F F
0.8728169256283437 0.8729068471059512 0.9961594042801912 F F F
0.8731217714463151 0.7484700712693512 0.1224488356621588 F F F
0.7486987539946525 0.8730245566978689 0.1222973490943939 F F F
0.2509375464195112 0.8725619922640079 0.8711895334512818 F F F
0.3767060516692717 0.7491960845704363 0.8726939950585224 F F F
0.3767030542056022 0.8736673486272867 0.7490802573793861 F F F
0.2507986426027048 0.7492978509746573 0.7492949309254657 F F F
0.9979458574804086 0.8733421616632245 0.8716904935435738 F F F
0.1240408595087094 0.7489185055177552 0.8723189666101572 F F F
0.1239806243465036 0.8731388988791576 0.7492853421398058 F F F
0.9983503480339895 0.7489394901981025 0.7487203614283239 F F F
0.5069227161798266 0.9953963776298174 0.2488686833816081 F F F
0.6274458607967194 0.1241690603268316 0.2487130386426878 F F F
0.6263529787252178 0.9973878882345366 0.3757355903936989 F F F
0.5078624660661438 0.1237841540001422 0.3783531943555492 F F F
0.7484185431193554 0.9975910918123232 0.2490229878434660 F F F
0.8663070205350187 0.1240689123115936 0.2502111412634510 F F F
0.8702815911126590 0.9971677751650344 0.3782429085394000 F F F
0.7460408913542945 0.1225928471219234 0.3757094585291753 F F F
0.7498232859651394 0.6254965959280694 0.8734243495775806 F F F
0.8737290616061228 0.5012052802429749 0.8721997425948217 F F F
0.8743631552503235 0.6254364897733355 0.7488948807201066 F F F
0.7498275787766472 0.5012737419770782 0.7489331314923742 F F F
0.5011539412073044 0.6255190056246892 0.8730649950731950 F F F
0.6257544393389084 0.5012039644307019 0.8731745455814126 F F F
0.6255673570121865 0.6253853951621731 0.7489304732297258 F F F
0.5013487836810695 0.5013076480614534 0.7491648957933801 F F F
0.5095467190218480 0.2519557798622399 0.2489133781981016 F F F
0.6265462332161754 0.3778453904519386 0.2485434465722024 F F F
0.6268338973265289 0.2509687643675280 0.3759309093661748 F F F
0.5054554412836795 0.3791933302500162 0.3777851713625183 F F F
0.7460894856177797 0.2509485961458456 0.2476216354136062 F F F
0.8694750208982112 0.3804969407962951 0.2516577384014860 F F F
0.8593342269741420 0.2507165822673396 0.3766779446915217 F F F
0.7458186632523943 0.3782352528185086 0.3747552219563930 F F F
0.9947911428701871 0.5048851049984858 0.2517574526634589 F F F
0.1238518919160054 0.6274795043931527 0.2493557135619584 F F F
0.1218988492207343 0.5061534571171300 0.3789131770572781 F F F
0.9977829441330514 0.6259867223780198 0.3759958319781008 F F F
0.2513704330026716 0.5095470733832947 0.2486949391711992 F F F
0.3771379179003218 0.6269090819835882 0.2490331265835680 F F F
0.3795664457732992 0.5061593831150779 0.3775999282000730 F F F
0.2498630850481832 0.6263827945830229 0.3761068505877851 F F F
0.5047460555304342 0.5050476700543496 0.2486145301812374 F F F
0.6264947198281678 0.6262773149386632 0.2489655010606443 F F F
0.6259904306669798 0.5027056478267735 0.3754806026910417 F F F
0.5021196815959679 0.6268243843141907 0.3756270218682348 F F F
0.7484180765540558 0.5026814993085716 0.2489909473689652 F F F
0.8727694428463527 0.6264519093881021 0.2493069160645147 F F F
0.8747486050873813 0.4991637958140079 0.3763959132735910 F F F
0.7508462333615643 0.6245240756391378 0.3751071534878379 F F F
0.9974087937587239 0.7479954092133243 0.2492384997639155 F F F
0.1228539858011984 0.8656421431296990 0.2493162145579403 F F F
0.1239128374582651 0.7476657080641329 0.3762356899878774 F F F
0.9959977414977660 0.8694761798898712 0.3778209755877944 F F F
0.2504717462630915 0.7471305191842654 0.2491303915121891 F F F
0.3793158191004287 0.8681516281193644 0.2488931386230479 F F F
0.3767156956444177 0.7481590909901048 0.3755643253788457 F F F
0.2509542506005508 0.8671815046293854 0.3784245457382439 F F F
0.5023748877740273 0.7481364381867516 0.2489875639522842 F F F
0.6269519081957455 0.8725780123370885 0.2489506938872808 F F F
0.6265490643081096 0.7488385834613741 0.3751245400830875 F F F
0.5039974057703417 0.8706421598550842 0.3762970789618676 F F F
0.7491106538722130 0.7487445310462302 0.2489350023224284 F F F
0.8704514529154656 0.8706331060548160 0.2491689453983998 F F F
0.8730364760347628 0.7484099777950342 0.3757230857499137 F F F
0.7489081434107853 0.8730950573147599 0.3758102309087651 F F F
0.9958062770182605 0.9963042003884989 0.5053332941135398 F F F
0.1258925319057313 0.1222363820297324 0.5118128350322814 F F F
0.1238220509343330 0.9968609251062137 0.6278973929897402 F F F
0.9972239739931443 0.1270445809973086 0.6223329635919811 F F F
0.2515224162078371 0.9948901570384546 0.5079806168323876 F F F
0.3803770843376475 0.1235222834048266 0.5082026713627810 F F F
0.3770946208340570 0.9976923397943928 0.6269582185903947 F F F
0.2519850414724209 0.1238558829212922 0.6291746508769527 F F F
0.5039357310118611 0.9975387895276494 0.5037168129727635 F F F
0.6266509427619712 0.1239752459486598 0.5022704150522557 F F F
0.6261161385567666 0.9982636921685510 0.6255297309015443 F F F
0.5028176723955574 0.1238412067479933 0.6274127408691189 F F F
0.7486215239378167 0.9983523210163733 0.5014164930345232 F F F
0.8681046190160965 0.1247934038129756 0.5050290579139158 F F F
0.8728559411127418 0.9979533052301781 0.6262857061914132 F F F
0.7483306197158622 0.1241434368231100 0.6265494566276596 F F F
0.9931663835188743 0.3169607775930868 0.4460687590528410 T T T
0.1305755454659850 0.3822479733706501 0.5073737484222978 F F F
0.1218703312430696 0.2511895834976569 0.6240471389990729 F F F
0.9978910189637026 0.3741545029853782 0.6208251614775407 F F F
0.2541976491281175 0.2520508838031632 0.5119649937058718 F F F
0.3795069308373563 0.3792830326780797 0.5055748422384593 F F F
0.3784244159987959 0.2512974848457251 0.6282619547793115 F F F
0.2523411229739043 0.3782582662169705 0.6287688305058271 F F F
0.5051032192991680 0.2511858045844536 0.5047948436111374 F F F
0.6261205195511527 0.3772165721813125 0.5017071887617870 F F F
0.6257313710747046 0.2508448082397237 0.6266282567915664 F F F
0.5022803755824895 0.3773489183999083 0.6264392149412467 F F F
0.7457065911955444 0.2504904226852195 0.5029174369293624 F F F
0.8612387188633783 0.3808731348241574 0.5040421863821117 F F F
0.8756364851076757 0.2514146827004347 0.6212915877621294 F F F
0.7474567629674873 0.3768769196890873 0.6273557822084792 F F F
0.9973916198254650 0.4970146441167137 0.4985619201175212 F F F
0.1237070060977530 0.6260868897593503 0.5018897126505351 F F F
0.1235039470059318 0.5029427402169927 0.6268467901263989 F F F
0.9983218157002286 0.6244112969395033 0.6237919403484498 F F F
0.2525260656703840 0.5062472422698961 0.5048611910427372 F F F
0.3769728068324324 0.6269435681763490 0.5015543076951425 F F F
0.3774107471999903 0.5024406211941765 0.6264758782682094 F F F
0.2509440594052369 0.6265180269138103 0.6263710832742305 F F F
0.5023746967533830 0.5025829684600107 0.5020046137089266 F F F
0.6253222319272144 0.6263322692214323 0.5004485643430484 F F F
0.6254195338868644 0.5015298308837806 0.6250305819544925 F F F
0.5013302485535130 0.6258146394923838 0.6248342682975053 F F F
0.7471188544575447 0.5038742050787069 0.5008581073969763 F F F
0.8741443974494719 0.6246454067442933 0.5005707173784841 F F F
0.8739992483152630 0.5018208124569915 0.6252577580110459 F F F
0.7497763858053730 0.6256259472457925 0.6246294051416310 F F F
0.9982739987665628 0.7483396661453805 0.5013916450569766 F F F
0.1238971605060222 0.8698720037809747 0.5046535205216337 F F F
0.1241459548101952 0.7486208000040374 0.6260603257460896 F F F
0.9978195014663738 0.8727070764198055 0.6262311461743169 F F F
0.2504854922229939 0.7477176007059358 0.5020471143266678 F F F
0.3773997787344452 0.8709457143363185 0.5037219871876485 F F F
0.3767513221934526 0.7491852192736486 0.6257691221760884 F F F
0.2509149723826319 0.8722745510014155 0.6271819946172792 F F F
0.5015982475255849 0.7493521073799455 0.5011595388710155 F F F
0.6261607809047394 0.8732224458909632 0.5011464330773566 F F F
0.6255910738116869 0.7496182050124729 0.6246207234736009 F F F
0.5017698457366244 0.8734266169412314 0.6257767318077285 F F F
0.7497903501760128 0.7490644429292677 0.5004146156785944 F F F
0.8727101722597397 0.8726756480784558 0.5017876545577408 F F F
0.8738746132496510 0.7490992461727862 0.6245248324872226 F F F
0.7495618882964012 0.8738035595499339 0.6246915452246777 F F F
0.9983260408737890 0.9998882908457594 0.7477240345335218 F F F
0.1241050378665166 0.1248498871923547 0.7479012091794066 F F F
0.1235690581121703 0.9979494584626865 0.8701325356268655 F F F
0.9973296567223469 0.1244771311323456 0.8699002651831499 F F F
0.2506565113931395 0.9982655766475790 0.7491697394641132 F F F
0.3766859995553071 0.1245240585722745 0.7494666277366503 F F F
0.3770895834759405 0.9979923653184285 0.8713802680564000 F F F
0.2503106442791934 0.1244718012271829 0.8691076159034250 F F F
0.5015927557581912 0.9983517447272583 0.7491506581183273 F F F
0.6261634011070211 0.1244798668992950 0.7494029044502606 F F F
0.6259777631907542 0.9985768682998579 0.8726206658209965 F F F
0.5026930225577173 0.1241491581021740 0.8711773683934290 F F F
0.7493072488304738 0.9982665295579142 0.7491224662432719 F F F
0.8737036524084957 0.1247833780733216 0.7478967381650832 F F F
0.8732158123346954 0.9984181609977585 0.8715529321376172 F F F
0.7494454380701517 0.1245512224919182 0.8717784083410453 F F F
0.9984535925018109 0.2507629401872868 0.7468331971181743 F F F
0.1238950100714038 0.3763419624657690 0.7475617890687051 F F F
0.1235931402990066 0.2512634750049982 0.8688696654046508 F F F
0.9978976829664283 0.3769132929587228 0.8705939891004395 F F F
0.2490620943826007 0.2507760132083124 0.7478648573976627 F F F
0.3768262538610567 0.3768047830491910 0.7495256134099489 F F F
0.3771071341803540 0.2511721299950109 0.8704169604995630 F F F
0.2505302794486762 0.3777007921707603 0.8701827719766624 F F F
0.5019367708656675 0.2508754793262949 0.7495654891222644 F F F
0.6255796584355364 0.3765874367122536 0.7497095797953754 F F F
0.6268118858511462 0.2508070695097064 0.8719151072120009 F F F
0.5020819364269689 0.3770520686947612 0.8723840185237420 F F F
0.7510062640325705 0.2506979838828386 0.7475403326278030 F F F
0.8742760230096319 0.3763552427083687 0.7474797784053951 F F F
0.8727593024417969 0.2510796671039229 0.8705480188031494 F F F
0.7497212808251558 0.3764311645398739 0.8721549811668623 F F F
0.9984120617213555 0.5001756809621646 0.7477872239074139 F F F
0.1240332756144563 0.6258913352054780 0.7490708819726494 F F F
0.1238770558902789 0.5023094748911331 0.8707960532049943 F F F
0.9984535862526057 0.6253870967003713 0.8723638136281432 F F F
0.2506915537044197 0.5022076652502975 0.7491648523344611 F F F
0.3766787380264762 0.6258060552297019 0.7491504727964636 F F F
0.3769384231503582 0.5021930848542426 0.8720766889202468 F F F
0.2506546357692380 0.6262974759339658 0.8723283956747314 F F F
0.2534157190702682 0.3835538350970450 0.3802782423221429 F F F
0.3820441819191653 0.2511234894641329 0.3811674773089029 F F F
0.3814673316821366 0.3812449477534345 0.2487902478713677 F F F
0.2514462970799750 0.2519505719231976 0.2488643089833716 F F F
0.1233619237118918 0.9938219964530715 0.1173152621179806 F F F
0.1315233024000558 0.2503729975939888 0.3859341587107180 F F F
0.1206200751933319 0.3839313420855488 0.2546329703338392 F F F
0.9905797222411716 0.2552945178394158 0.2573249501961295 F F F
0.2530049552266111 0.1224099825840511 0.3848848423079508 F F F
0.3799689313946045 0.9949548699484292 0.3786889019467540 F F F
0.3841788120325343 0.1244645338011640 0.2489179185115908 F F F
0.2501919243449299 0.9912074508109943 0.2492143750601128 F F F
0.9935995333626716 0.1304106897015644 0.3877836250455575 F F F
0.1233115086548607 0.9939050221087140 0.3816069912235086 F F F
0.1225481024087972 0.1248234888091591 0.2503287159890307 F F F
0.9939234220083532 0.9954351252012503 0.2505771827271707 F F F
0.2497507136493326 0.3821637958443110 0.1181461493916479 F F F
0.3815767795114035 0.2512918348009313 0.1166753344644640 F F F
0.9951113963236764 0.3793476954872566 0.1205727331056699 F F F
0.1226958051432529 0.2520782132008485 0.1147865926932164 F F F
0.2504548135096147 0.1243344263449765 0.1133543121576376 F F F
0.3791540518531935 0.9957533794131920 0.1193157671230136 F F F
0.9928341230363430 0.1256089477947797 0.1185619217003939 F F F
