#comment
1.0
16.184 0.0 0.0 
0.0 16.184 0.0 
0.0 0.0 16.184 
Al Mg Zn 
209 17 29 
selective
Direct
0.9977857216796092 0.9988732128456261 0.5014827213684233 F F F
0.8742767561991273 0.7495467488402803 0.8722410160591432 F F F
0.8748910060328967 0.8739995173870332 0.7474187211676006 F F F
0.0228372359638632 0.1444113085426364 0.1180411094125253 F F F
0.7497869662009000 0.7493943429002322 0.7479343722345442 F F F
0.4996364352431675 0.8734414449598198 0.8725402405150303 F F F
0.6249258760185504 0.7489785144576089 0.8725796010084318 F F F
0.6248661386858043 0.8737676411807559 0.7479438742569630 F F F
0.4992696440966274 0.9951719051860735 0.9994921388178145 F F F
0.4999128110885053 0.7494644756001789 0.7480584685730978 F F F
0.2500793054550328 0.8737521309707554 0.8720516398589915 F F F
0.3751179259813086 0.7492779174617271 0.8722393653792719 F F F
0.3748306613980421 0.8745623281715117 0.7478289819446956 F F F
0.2502645198868858 0.7496953951443641 0.7475787032060517 F F F
0.0002281259950013 0.8736085961407596 0.8715344109078236 F F F
0.7462011877047555 0.1229580555498273 0.1358431175544941 F F F
0.1251445167891307 0.7495302120628381 0.8716983908578017 F F F
0.1250543482629340 0.8739082193005020 0.7470621720444517 F F F
0.9995492932711209 0.7494052809575892 0.7473835055109117 F F F
0.7498137981936496 0.6256458568276250 0.8724844439425964 F F F
0.8746306619713472 0.5013352525237253 0.8722760380286431 F F F
0.3673322604305467 0.3760774269676831 0.0000941902380560 F F F
0.8747043204041139 0.6251151955572548 0.7478737612421883 F F F
0.7497786829142853 0.5006449619526500 0.7476281516868525 F F F
0.4996434805014315 0.6255627541218554 0.8722563158422006 F F F
0.6244438352684404 0.5018786637217927 0.8719698921928686 F F F
0.6250246513484478 0.6252711116819477 0.7479847453532918 F F F
0.4995835910649901 0.5008771609492845 0.7477887186919518 F F F
0.2500125085956172 0.6261054710088166 0.8720048827677560 F F F
0.3737226395550690 0.5012845842139994 0.8724011918167455 F F F
0.3746365763828447 0.6247709215653106 0.7483119106249824 F F F
0.7534498303528361 0.3781461500757090 0.1282533322024391 F F F
0.9978954110854618 0.5044022979837643 0.9965664046436501 F F F
0.1249929124288990 0.6269265458104100 0.9966750062890338 F F F
0.1265833913050289 0.5038766768254206 0.1224962835766273 F F F
0.0002759188838624 0.6266011109480512 0.1223326718736545 F F F
0.2498313771697878 0.5033355955336979 0.9975297510150433 F F F
0.3748740295899989 0.6263218719717393 0.9973815043011810 F F F
0.3762114404590037 0.5051912458332062 0.1242858576078806 F F F
0.2505489453462904 0.6268699131097675 0.1231671044301858 F F F
0.4966107671200052 0.5010291535989265 0.9982214979915350 F F F
0.6249394301507787 0.6248766163312768 0.9974743989194321 F F F
0.6254451271338310 0.5035814569825162 0.1254136606046750 F F F
0.5010471385244851 0.6267928158062276 0.1234991818781521 F F F
0.7517967033374743 0.5014830248908020 0.9983558236178341 F F F
0.8741058112572195 0.6267459183626395 0.9973296233546883 F F F
0.8769231371200239 0.5012638788626896 0.1229858916717928 F F F
0.7509645365354078 0.6251293960552321 0.1232461162930847 F F F
0.9996937175581122 0.7482765429308790 0.9962127722522837 F F F
0.1248024773382191 0.8715309238395612 0.9960823433848975 F F F
0.1253099162241992 0.7481112843646479 0.1227200310161716 F F F
0.9982834617100963 0.8671888852012177 0.1238758230485315 F F F
0.2501867227622971 0.7487813272851093 0.9970011885861486 F F F
0.3746911701984815 0.8731664068115330 0.9977526854867199 F F F
0.3756416305078067 0.7479295292142283 0.1228097675472879 F F F
0.2503743077068207 0.8714570190576255 0.1221848825956107 F F F
0.5003555680609968 0.7488751708592943 0.9972157480791857 F F F
0.6249245221405605 0.8732807618978496 0.9982286785206023 F F F
0.6266599106861980 0.7486151010888070 0.1233638009247466 F F F
0.5009985147845794 0.8709691439546303 0.1232385811296702 F F F
0.7499345460583225 0.7490716873341280 0.9976296318380219 F F F
0.8761849375971951 0.8725280991650495 0.9981543793820322 F F F
0.8744972800609012 0.7474203855412108 0.1236622456632492 F F F
0.7526814419854986 0.8733161595901908 0.1250801556701640 F F F
0.2496163654989807 0.4999966481017704 0.7484044675074937 F F F
0.9993922313700875 0.6261184989217363 0.8717857733678952 F F F
0.1244972839707478 0.5052195427051659 0.8683065295491064 F F F
0.9975889156063932 0.1260755955386065 0.3745451156409342 F F F
0.1247348073362168 0.6265712747589496 0.7462142509661613 F F F
0.9992214277167629 0.5009399937354039 0.7466727850731361 F F F
0.7515226077492984 0.3765964755394396 0.8705007240879185 F F F
0.2506343494227037 0.1291010487757483 0.3773425295200277 F F F
0.8767233063823437 0.2509433086520536 0.8691330551247328 F F F
0.6232582479864448 0.1272419615513105 0.2566972852115053 F F F
0.8747382722751426 0.3763855065633246 0.7459901358154120 F F F
0.7495491191861698 0.2509567659420966 0.7461241709676146 F F F
0.4972581590136900 0.3771104101855853 0.8714531214180854 F F F
0.6230692425519808 0.2508568662359223 0.8687917414558053 F F F
0.8735977019729746 0.9986646029536727 0.3762009300980900 F F F
0.6240468670555017 0.3765126402174367 0.7471138876168456 F F F
0.4978512064967049 0.2507339109313425 0.7468285937589070 F F F
0.2477699219727487 0.3754679120965180 0.8746885228365002 F F F
0.1263532904286689 0.2492283620846917 0.3742237519721631 F F F
0.3703869235243353 0.2519547333012750 0.8726143903533783 F F F
0.2459332043369388 0.2562210507855412 0.2467381694729779 F F F
0.3768193959502177 0.3759122056353843 0.2507924737353571 F F F
0.3738646284566414 0.3762901925661956 0.7478461853775982 F F F
0.2502121002801393 0.3767466400979385 0.3747784947136171 F F F
0.5033544993779199 0.2558699966735133 0.2476499189095737 F F F
0.6252581651388707 0.3779425341674277 0.2512201574748476 F F F
0.2487233490219591 0.2510096319085211 0.7477823819955595 F F F
0.9976640419191849 0.3773862335108981 0.8704628236517939 F F F
0.7466446429957025 0.2517845377109395 0.2555989960031453 F F F
0.1262937148275185 0.2515428424095348 0.8760789922441500 F F F
0.8732219688517248 0.2491587686802319 0.3735196697787392 F F F
0.1241727809033266 0.3764952947624349 0.7478505224605080 F F F
0.0011437620249391 0.5044800466550200 0.2467442908272502 F F F
0.1258924524453224 0.6265865070659459 0.2491762829640873 F F F
0.1266800762329231 0.5025126445295502 0.3743058353358159 F F F
0.9997187029169298 0.6243338264480105 0.3749680317531731 F F F
0.2520384487870601 0.5044451933443254 0.2511173718753122 F F F
0.3764726099815083 0.6261361826357994 0.2498841203653117 F F F
0.3758445415479680 0.5013168754193598 0.3753411286983572 F F F
0.2507249128762020 0.6260431705256562 0.3763243498800172 F F F
0.5004864627770743 0.5020833694256605 0.2510980328321153 F F F
0.6258668687501869 0.6255025230519969 0.2503842742655060 F F F
0.6250135607266669 0.5013720178553903 0.3758364693769006 F F F
0.5007173395759160 0.6254085849837302 0.3760995130019164 F F F
0.7503457227752152 0.5016201273289523 0.2506142081429787 F F F
0.8747696655049554 0.6254401551276803 0.2492352383399942 F F F
0.8737766215061707 0.5014790216279237 0.3743995471134764 F F F
0.7500059308787675 0.6255810771021755 0.3760506298666503 F F F
0.9992730481384714 0.7468634608849818 0.2503511827808590 F F F
0.1243935860770122 0.8673710667281924 0.2504346543814553 F F F
0.1246489646544174 0.7478146597855433 0.3764203154607618 F F F
0.9977388114921781 0.8712003529252662 0.3769144139926768 F F F
0.2511442835640441 0.7477094042674326 0.2495264469659766 F F F
0.3776203298520398 0.8679703651665143 0.2499084120287892 F F F
0.3762646312798766 0.7476036927751993 0.3767536381177690 F F F
0.2512472873340519 0.8695184067737837 0.3780731370151508 F F F
0.5018583754271650 0.7481013360801465 0.2498360191717683 F F F
0.6269573829025726 0.8724171978123884 0.2502063572552111 F F F
0.6253691190879499 0.7485157487008876 0.3763921194406254 F F F
0.5013534922684840 0.8714847463142650 0.3768075037478450 F F F
0.7504027967398031 0.7482761317509182 0.2498900318895470 F F F
0.8746706022753137 0.8726725649593581 0.2506199403127765 F F F
0.8744131808357276 0.7485455320633572 0.3753220014978489 F F F
0.7500286012728876 0.8734272551579385 0.3760971883195698 F F F
0.7500143922609458 0.8735542491452137 0.8721031617994085 F F F
0.1244436966951865 0.1254447586357467 0.5016072687675815 F F F
0.1254707860437451 0.9988923985342294 0.6241350047326083 F F F
0.9995874162310074 0.1252149309447650 0.6243779628342206 F F F
0.2518477588012331 0.0000178314350677 0.5000530389187767 F F F
0.3760630053365353 0.1256420367468152 0.4992579887579506 F F F
0.3752913485024239 0.9997159150634314 0.6241018521091397 F F F
0.2505191540427145 0.1251218889527689 0.6236904053802045 F F F
0.5007782626713692 0.9993097958272816 0.4988269958624381 F F F
0.6246857068972094 0.1248315078020425 0.4990045826486672 F F F
0.6247850594013715 0.9990885243506741 0.6237509352421625 F F F
0.4995329418124581 0.1249971728469774 0.6232356423263569 F F F
0.7491307936946727 0.9989543007884849 0.4997975478951157 F F F
0.8735926545395134 0.1243636509715776 0.4998937710017583 F F F
0.8738731046291665 0.9986818533619789 0.6243464286349146 F F F
0.7492018785747827 0.1247588849831632 0.6234655347992787 F F F
0.9996213256515486 0.2504627711633899 0.4999611944132060 F F F
0.1257604794575007 0.3764544701224306 0.4994759279900435 F F F
0.1251874056412890 0.2512291423413950 0.6236842774910767 F F F
0.9998499955313223 0.3763348645441164 0.6233493008049051 F F F
0.2506443130275673 0.2519226035594737 0.5001867768147291 F F F
0.3756915365000845 0.3761895141332194 0.4992898380853218 F F F
0.3746340887282579 0.2506998676103999 0.6234320592974184 F F F
0.2499966959428590 0.3768203417768209 0.6240591998022813 F F F
0.4998508943968064 0.2511538374327886 0.4990045337587957 F F F
0.6243158842145113 0.3760769966904119 0.4991997303711060 F F F
0.6239120462830677 0.2504644033366125 0.6230267715698043 F F F
0.4994628944249446 0.3757975081089507 0.6238342205768057 F F F
0.7488538687604887 0.2506248012477154 0.4991328481786212 F F F
0.8739290859814435 0.3756545155230875 0.4994283956513024 F F F
0.8744431640143674 0.2507341315602828 0.6234698531048199 F F F
0.7490430177616190 0.3763825556019284 0.6231831947680350 F F F
0.9998764053066100 0.5006810116044588 0.4996945834503854 F F F
0.1249281701420725 0.6250877718109978 0.5001894973662657 F F F
0.1251716271219569 0.5005774746695859 0.6239463305233530 F F F
0.9994437940953940 0.6251732237221922 0.6237336603408501 F F F
0.2505582844178317 0.5009646545007074 0.4995889462337469 F F F
0.3751625313982588 0.6249780771331416 0.5000456710066666 F F F
0.3752476390492586 0.5006862879259173 0.6244670765193880 F F F
0.2504038779150233 0.6247423830122690 0.6244890440431764 F F F
0.5000253438931402 0.5009546443123301 0.4997202075752559 F F F
0.6252863604719249 0.6250949364161968 0.5000118518066289 F F F
0.6243591777708313 0.5004972349174367 0.6240118768889673 F F F
0.4999773256105043 0.6252460046158519 0.6244614999238884 F F F
0.7495920042314138 0.5004258999864950 0.4993602206600793 F F F
0.8748189434332386 0.6252966650894054 0.4996602328664630 F F F
0.8740604586569445 0.5005310970950729 0.6234229317279603 F F F
0.7495787993867740 0.6252440848211950 0.6239403320165150 F F F
0.9996268826251262 0.7483382607179251 0.5003224896124236 F F F
0.1247805168660207 0.8728464913395395 0.5014867065553281 F F F
0.1252286034484651 0.7494499206333992 0.6238859469287951 F F F
0.9995265433192344 0.8734864449155847 0.6245382135196678 F F F
0.2502787146052992 0.7484709931348480 0.5010391323777640 F F F
0.3758468352692342 0.8736899543869787 0.5004433398796609 F F F
0.3754685974683638 0.7491256762600101 0.6244877376990972 F F F
0.2508606609513528 0.8744322710256375 0.6242561761939800 F F F
0.5003406142684698 0.7489013801358900 0.5002538040688560 F F F
0.6252689656508377 0.8739652407366726 0.4999137228846683 F F F
0.6246045810632829 0.7493403852181748 0.6239125195532111 F F F
0.5001329611007226 0.8746584832900172 0.6241995464915295 F F F
0.7499911070962691 0.7493539410890224 0.4996938197591261 F F F
0.8741138847023302 0.8733269424012817 0.5007571706727867 F F F
0.8742686205438204 0.7492562595327816 0.6240590613562689 F F F
0.7491786096655765 0.8737191011283775 0.6240190972243712 F F F
0.0003668042772571 0.9987817116330412 0.7468699393931384 F F F
0.1251997802707688 0.1254323424325153 0.7470679937694306 F F F
0.1253332727311743 0.9974587025105790 0.8708105490795175 F F F
0.0017926203499565 0.1252894594624166 0.8703950342198435 F F F
0.2500993654288404 0.9997776582561059 0.7476096283354703 F F F
0.3744241352490704 0.1249678079662068 0.7464440858803243 F F F
0.3742818215874116 0.9982101199779423 0.8716569565309923 F F F
0.2488070371806395 0.1257108168250823 0.8712990782182127 F F F
0.4996779347780334 0.9987101016926754 0.7469075072079453 F F F
0.6237978104722220 0.1248354566103197 0.7458365794495242 F F F
0.6235151363776157 0.9984336034366921 0.8707779241516231 F F F
0.4977906406979347 0.1246771312075616 0.8697398016399759 F F F
0.7495447256269856 0.9986687429158351 0.7469559447733439 F F F
0.8754360198014046 0.1250485525651003 0.7461367876959575 F F F
0.8769923981795859 0.9992495132659045 0.8707005354232444 F F F
0.7502945839956808 0.1244022925136549 0.8676159545164740 F F F
0.0012226682994409 0.2512812579489650 0.7475585509664581 F F F
0.1149399215866048 0.9961937342165149 0.1251567280852651 F F F
0.3725375060274668 0.1247325341083015 0.0014363827921551 F F F
0.2453669838556196 0.1184831650912174 0.1244730185242211 F F F
0.6200843404814311 0.1247107530917146 0.0022639130474690 F F F
0.7526858004015811 0.0022785411967872 0.0000481804425470 F F F
0.0007880970274463 0.3745512759297744 0.3688519344608935 F F F
0.8887735704866563 0.0105481426180870 0.1267633600293905 F F F
0.1656856347033353 0.2623296300644388 0.0694394422409849 T T T
0.0086681410547434 0.3693480175912526 0.1230133319960981 F F F
0.1230393820287112 0.9994762031415320 0.3748926641601165 F F F
0.4949064825673937 0.2541783043920278 0.0073328163674251 F F F
0.6248535833292056 0.3769550799066175 0.0011178052417819 F F F
0.7533201281292720 0.2477426652474408 0.9992563524009687 F F F
0.5005300256794878 0.9986250277219253 0.2517843819631423 F F F
0.8787905874427502 0.2428921891362133 0.1302260573440050 F F F
0.3785672046840628 0.1328614728776795 0.2499054509539249 F F F
0.2552995126763370 0.9949861183566229 0.2533726803934898 F F F
0.1265362054282654 0.1259993522764315 0.2519474911714034 F F F
0.9982562735550520 0.9956916711343236 0.2567858908226942 F F F
0.3769228792655929 0.9991807930373892 0.3790918423059094 F F F
0.8755650847280424 0.3770578565401954 0.9985506347523638 F F F
0.6266937444052104 0.9982845035699599 0.3763522465032658 F F F
0.4975957793199890 0.3827887243613772 0.1269583778292972 F F F
0.6279134718473320 0.2529064667771944 0.1293049875745227 F F F
0.5013016048732440 0.1273965387340441 0.3784000651900310 F F F
0.7500696821794987 0.9974850947610664 0.2522597684042804 F F F
0.2543528807841693 0.3906290360524251 0.1297602771110394 F F F
0.3599609669119452 0.2579484907561998 0.1216749200040352 F F F
0.8705675676756057 0.1231876419417427 0.2586927072171646 F F F
0.7487458177829565 0.1238769490109063 0.3787761306202728 F F F
0.0065905295161488 0.2467715347031787 0.2510247370997558 F F F
0.1202426490809501 0.3933408091415204 0.9857851686826110 F F F
0.9984664801086471 0.2531774137729454 0.9908767782392071 F F F
0.1296298704295381 0.3787625285116804 0.2484682909535249 F F F
0.8812246737575140 0.1251446670365138 0.9929158556262950 F F F
0.3755570644114531 0.2539908330468608 0.3757455576821319 F F F
0.5015401781805998 0.1231734235777109 0.1278332536149309 F F F
0.6268346840672466 0.9956463308773752 0.1262276811826592 F F F
0.6239502195403177 0.2522768058580624 0.3769571929497428 F F F
0.5006973370010287 0.3768714756408496 0.3751308629017290 F F F
0.3759121340037272 0.9938572741685046 0.1239870506493608 F F F
0.8742045479251295 0.3766326211992058 0.2493334948565132 F F F
0.2494088615158015 0.9943337124690569 0.9963724632822240 F F F
0.7494439083305209 0.3766612150469119 0.3759136480170688 F F F
0.1285341477191462 0.1170049617728836 0.9887080325487068 F F F
0.0006771158107782 0.9979052806425327 0.9919070157570182 F F F
