#comment
1.0
16.184 0.0 0.0 
0.0 16.184 0.0 
0.0 0.0 16.184 
Al Zn 
239 16 
selective
Direct
0.9997198914725959 0.9999803871134400 0.5004123410404648 F F F
0.1222389702783404 0.1198701040624827 0.0002050620638987 F F F
0.1250114379722853 0.0014062341886525 0.1303842490089194 F F F
0.8748100655872915 0.8745439120000909 0.7502875624079940 F F F
0.7503916015760171 0.7500303144096707 0.7501783900563338 F F F
0.3737521851551454 0.1239699721750524 0.9999031889114273 F F F
0.3736075804226425 0.9994051399237865 0.1244009269241688 F F F
0.2497521039696543 0.1244848596299512 0.1243415263829655 F F F
0.4993927916812486 0.9998095774801053 0.0002103694286607 F F F
0.6256243802971402 0.1246283665289952 0.9998910248819464 F F F
0.6250550380039382 0.9999435220926501 0.1247422811687946 F F F
0.4996818119498743 0.1250506194521846 0.1250110166937593 F F F
0.4996329573889125 0.8751501342391155 0.8751729818022468 F F F
0.8776239172866750 0.1227348090858810 0.9995490632866769 F F F
0.8777543242294084 0.0004594710434438 0.1234877841775953 F F F
0.7504434668407663 0.1248408202266108 0.1245223987742855 F F F
0.0003105925969221 0.2487052316366222 0.9995641337480097 F F F
0.1247405931751335 0.3744165824422224 0.9999721739965741 F F F
0.1243732168802980 0.2482524513171556 0.1248709082132885 F F F
0.9998904550348297 0.3747959060075598 0.1248518821408569 F F F
0.2481265669755277 0.2485743444019010 0.9991141621803190 F F F
0.3746895586678204 0.3747076602647740 0.0000636179940986 F F F
0.3748399759720388 0.2500464670264107 0.1247730089730804 F F F
0.2500071493080313 0.3744725643786706 0.1247924575672764 F F F
0.4997849210272434 0.2497120998517744 0.0000694358789486 F F F
0.6252170351673947 0.3748173911386635 0.0001385450859520 F F F
0.6252566870701405 0.2499995922019713 0.1248199355185563 F F F
0.5000044461711053 0.3749628096835435 0.1252589998706038 F F F
0.7516833947413304 0.2488131102720749 0.9991420783844530 F F F
0.8753106256651589 0.3745295163115799 0.9999191517211062 F F F
0.8755545628027412 0.2494491054772351 0.1249247376893930 F F F
0.7501024000961827 0.3746319701425763 0.1248875606279022 F F F
0.0000377236114870 0.5000570957107601 0.0000943523212456 F F F
0.1246856234053386 0.6265965166801966 0.9996805500456266 F F F
0.1250550118784378 0.5000047338223184 0.1248435440649668 F F F
0.0001127416704914 0.6257205534937006 0.1243952252641576 F F F
0.2499141392295173 0.5000022673971418 0.0001054511833570 F F F
0.3739866183642544 0.6260532453055349 0.0001385599753011 F F F
0.3750621243944288 0.5000643930030685 0.1251273134299425 F F F
0.2500143470258247 0.6252028940556303 0.1247573931428482 F F F
0.4998981702548893 0.5000770060157598 0.0001830304650030 F F F
0.6251333755643225 0.6252930922568299 0.0001333809967555 F F F
0.6249755045658726 0.4999421281034822 0.1253069928268857 F F F
0.4997874368770848 0.6250942513638863 0.1251185262754984 F F F
0.7504033138990287 0.5001685999703406 0.0002146738624715 F F F
0.8764500537003042 0.6264271087400387 0.9995171663695974 F F F
0.8749766810486500 0.5001278919076332 0.1250355534976173 F F F
0.7500724943276742 0.6250746431726769 0.1248725027187654 F F F
0.0035642795181644 0.7549749581319146 0.9988183081204475 F F F
0.6248817408218639 0.7501576706748156 0.8748615860564648 F F F
0.1254821730546555 0.7530072700659534 0.1237011490087369 F F F
0.9985295542121109 0.8740232221146716 0.1312215246240813 F F F
0.2470324394285512 0.7528710176219173 0.9998755223806753 F F F
0.3730143582386106 0.8753545348729227 0.0004118752123650 F F F
0.3744670384324781 0.7502980167255088 0.1249794617409138 F F F
0.6251204765436258 0.8751131480039612 0.7501281785017786 F F F
0.4998379017725195 0.7502891542356342 0.0001360844756808 F F F
0.6251629654356475 0.8753037391677827 0.0002579136815141 F F F
0.6251558957653055 0.7500855299880060 0.1250734435002024 F F F
0.4996050851572174 0.8747707274326152 0.1250696558469639 F F F
0.7513077084473142 0.7510194958959808 0.9996663550112662 F F F
0.8790821410256319 0.8774877203603919 0.9999073899385255 F F F
0.8751495066497722 0.7501010960066055 0.1242853293892455 F F F
0.7505108970342250 0.8751901648173001 0.1244021452176481 F F F
0.4996560047779474 0.7501081260109710 0.7498166095849378 F F F
0.2470029431752448 0.8752375366491696 0.8765444592160315 F F F
0.1247698676905433 0.0003525110626293 0.3744537929662640 F F F
0.0000783110820388 0.1248687239164856 0.3744350173548805 F F F
0.2506739117829453 0.9999365122810017 0.2501515223616523 F F F
0.3752104035464233 0.1252345402722205 0.2497885757703781 F F F
0.3752956615181850 0.9998594675150001 0.3750113132656900 F F F
0.2499370316831948 0.1249863669867553 0.3747258235715958 F F F
0.4996023047917751 0.9997912623355333 0.2496005738539964 F F F
0.6250961810021933 0.1251387624604478 0.2497670478064161 F F F
0.6250774824485821 0.0000202755512817 0.3748000574479090 F F F
0.4999171212276938 0.1252937324369438 0.3750428734579320 F F F
0.7510424123402225 0.0000452891491283 0.2488310688958926 F F F
0.8754723413425012 0.1251549355334486 0.2494114974808590 F F F
0.8752666790508741 0.0000355404419830 0.3745312156798696 F F F
0.7502685307406718 0.1250343909057516 0.3745469894109496 F F F
0.0001205396991947 0.2488135339408572 0.2487873912780968 F F F
0.1250028490387513 0.3748898424815759 0.2496711768732629 F F F
0.1248839858359498 0.2499976140158739 0.3747978148136735 F F F
0.9997752904504623 0.3748198718308924 0.3748415524714911 F F F
0.2499296738617886 0.2498322282932301 0.2495542849348449 F F F
0.3750357847841427 0.3749046927325131 0.2499847768170015 F F F
0.3750113990592338 0.2500941192859549 0.3748474293577773 F F F
0.2502515832403252 0.3748857972237400 0.3750184343962727 F F F
0.4999212266703749 0.2502939909068965 0.2499389196370193 F F F
0.6252117288850629 0.3748559403830213 0.2499414597018765 F F F
0.6251383546628569 0.2500008472213321 0.3749278083657209 F F F
0.4998789915781097 0.3749657794533689 0.3748225949629717 F F F
0.7500656224816696 0.2502309805374139 0.2498536978281425 F F F
0.8749666040103020 0.3748363191813820 0.2498053217205284 F F F
0.8750043843420927 0.2501073527336606 0.3747393888452660 F F F
0.7501509540704275 0.3749514118545791 0.3748535213124243 F F F
0.9999644701638474 0.5001621988832271 0.2497174986084454 F F F
0.1251822548204317 0.6259704961328464 0.2488734384024261 F F F
0.1251347354724473 0.4999997735357627 0.3749266690303573 F F F
0.9999604211381790 0.6245950507185463 0.3751724515634466 F F F
0.2501775694246623 0.5000007060492271 0.2499364708480006 F F F
0.3752394072453915 0.6249258082115067 0.2500627462319405 F F F
0.3750164689614918 0.5000254942101586 0.3748075125540180 F F F
0.2500675290424866 0.6249799784665236 0.3747588131642355 F F F
0.4998692771569250 0.5000666352625205 0.2501520531309969 F F F
0.6250265151378930 0.6249710976228007 0.2499097455074946 F F F
0.6251092103792125 0.4999863593869580 0.3748051110096844 F F F
0.4999422065504451 0.6250505936571269 0.3749011820181180 F F F
0.7499200880674980 0.4998470025992527 0.2499842876213762 F F F
0.8746671757412834 0.6249631244083511 0.2498217254899897 F F F
0.8747568261224113 0.4999142622235372 0.3749752306098224 F F F
0.7501457082454316 0.6251224313992649 0.3746969287598089 F F F
0.9998227018186348 0.7489768487591204 0.2508682961681230 F F F
0.1258065536652975 0.8748459909712933 0.2506607072812808 F F F
0.1251608972531663 0.7498189077334413 0.3752350143424480 F F F
0.9998919233361560 0.8751047619652412 0.3749517380648124 F F F
0.2504353891161103 0.7500036906505920 0.2498879141603738 F F F
0.3740851420987988 0.8748117163059957 0.2489132357410448 F F F
0.3751318524826276 0.7499570584192606 0.3748057446283259 F F F
0.2503249111083369 0.8749188830725364 0.3751509232640207 F F F
0.4998420922860928 0.7498782405434506 0.2500033454113675 F F F
0.6252360674259848 0.8748797861259211 0.2496557465916223 F F F
0.6250027984199156 0.7499520900177645 0.3749775125448190 F F F
0.4998434229898337 0.8747132185679614 0.3747399503852152 F F F
0.7500631231339761 0.7498686625624350 0.2496765590537462 F F F
0.8739899030782193 0.8748678939788487 0.2506290144239748 F F F
0.8747065473680418 0.7498473280226559 0.3750743526865788 F F F
0.7497296121681035 0.8749877256312337 0.3750694616860696 F F F
0.7510444069472756 0.8750920167465758 0.8759528427029639 F F F
0.1250032019586194 0.1249698442207107 0.5001175399085134 F F F
0.1249463635384496 0.9998751855288668 0.6252053078841505 F F F
0.0000670794410948 0.1250662141381439 0.6252906068587899 F F F
0.2501144608629305 0.0000463534122307 0.5000837961953560 F F F
0.3751706474928118 0.1252815717324715 0.5000885850413090 F F F
0.3753270469772796 0.9999067745340173 0.6248409701251902 F F F
0.2499209917399333 0.1251130337919254 0.6251033918947193 F F F
0.5001902381886641 0.9999956536567505 0.5000625582817315 F F F
0.6250525722811786 0.1254371368498552 0.5002128524197131 F F F
0.6251009686162463 0.0000913459977759 0.6251949323569883 F F F
0.4999101459887552 0.1252278218922994 0.6249811026792578 F F F
0.7500891500367889 0.0001241375934589 0.5001839019753036 F F F
0.8748043678335605 0.1252591393052078 0.5001801180051025 F F F
0.8750238545981213 0.9998334841488552 0.6253626399407661 F F F
0.7503061370418836 0.1249819117857116 0.6254763572813270 F F F
0.9997395903936611 0.2500736631323398 0.5001425273084981 F F F
0.1250922700670537 0.3751166882958151 0.5000363503590729 F F F
0.1249223355206097 0.2501453277492972 0.6250035602405053 F F F
0.9998016356179951 0.3748349234184853 0.6252017308358323 F F F
0.2502159265487427 0.2502159592817090 0.5001421471511527 F F F
0.3752122859407270 0.3749005753411178 0.5001437678887490 F F F
0.3749447274050298 0.2500611531958077 0.6251169889252669 F F F
0.2503981595031430 0.3747961026177636 0.6250644920667547 F F F
0.4997845899558978 0.2502331171388599 0.5002157737203554 F F F
0.6249716347471550 0.3749033676662936 0.5001377786165963 F F F
0.6250925033728886 0.2500500593790053 0.6250955352690717 F F F
0.4999282631142258 0.3750101054875462 0.6249857414856911 F F F
0.7501142905384799 0.2502466967392094 0.5003197307176448 F F F
0.8745838827269860 0.3750860291397555 0.5002160891417053 F F F
0.8752161505154171 0.2500711943924413 0.6253689971939227 F F F
0.7501443227761446 0.3748847811522243 0.6251781224535273 F F F
0.9998071970727613 0.4997494204962448 0.5002660296179224 F F F
0.1251553307859352 0.6250312761723017 0.5002369492338692 F F F
0.1251490578622592 0.5000795420881506 0.6250305936641168 F F F
0.9999636202061225 0.6248042635217593 0.6249890515749250 F F F
0.2504506248009271 0.4998509907069946 0.5000982732222837 F F F
0.3751237451099565 0.6250416115703578 0.5000450912122824 F F F
0.3750318067942896 0.5000313053486686 0.6250086097619896 F F F
0.2501114441351672 0.6250463230375075 0.6251943628945645 F F F
0.5000119651257329 0.4999994001672817 0.4999660226338060 F F F
0.6251555447051890 0.6250333701070871 0.5001236011020337 F F F
0.6250739494651542 0.5000129061987928 0.6250058819348838 F F F
0.4997956559853963 0.6252137239700822 0.6249415108817404 F F F
0.7498496566997761 0.5001191006833072 0.5000726741110929 F F F
0.8747127110029844 0.6248982327253402 0.5002624636306090 F F F
0.8747850628425234 0.5000320809088243 0.6249440996807538 F F F
0.7501415713804633 0.6250954741239027 0.6251550146160468 F F F
0.9996951211130480 0.7498981760762670 0.5003070007609608 F F F
0.1250896530009235 0.8749689232461854 0.4999356506275446 F F F
0.1249457052837143 0.7502380663888975 0.6253762714189761 F F F
0.0000621141748462 0.8748826171553914 0.6250213240043276 F F F
0.2503872498813727 0.7497217561750877 0.5003568650348448 F F F
0.3750415118330130 0.8746895150393134 0.5001422823233478 F F F
0.3749341876842702 0.7500055911101071 0.6252598720942644 F F F
0.2499081125999354 0.8749399859635792 0.6253417381485766 F F F
0.5000014918366462 0.7497795940295923 0.5000406211001877 F F F
0.6247835346805448 0.8747775320417756 0.5001655359100688 F F F
0.6250831433223520 0.7498576620490347 0.6249812413876564 F F F
0.4998153608541679 0.8748135434683436 0.6251500511848633 F F F
0.7499274693887538 0.7498291855312035 0.5003704031662802 F F F
0.8748478827035348 0.8748261240149968 0.5002040351724710 F F F
0.8751350545299053 0.7500257899473213 0.6254218884761376 F F F
0.7497934386052196 0.8750456073495907 0.6251866676766985 F F F
0.0000240723840977 0.0000190759083480 0.7494081529636758 F F F
0.3748512855745848 0.7502329688299245 0.8752026023466891 F F F
0.1269081043146869 0.0028004654021596 0.8693487915821649 F F F
0.0004658992201696 0.1230868790569607 0.8765926810989277 F F F
0.2503097914328772 0.0006389317918707 0.7493742553800165 F F F
0.3749876076811866 0.1252413751735139 0.7502078145862723 F F F
0.3735827112340552 0.0001913860092520 0.8756633805753444 F F F
0.3739233148037391 0.8750047576882637 0.7510105914555648 F F F
0.4996080524360706 0.9998849448540561 0.7502609125384790 F F F
0.6255248580719678 0.1249560795823023 0.7501968065190584 F F F
0.6256344027794496 0.0001476700500659 0.8754573746082673 F F F
0.4998364334092385 0.1249360691891907 0.8750166742499764 F F F
0.7513814225771174 0.0002463551637601 0.7514728827159318 F F F
0.8747479390252495 0.1255320611346271 0.7509201671535811 F F F
0.8775841571874125 0.0003119237286387 0.8772336658686446 F F F
0.2494006994254987 0.7501192640884550 0.7501859661473238 F F F
0.0005014917384971 0.2485901482781721 0.7518396228572171 F F F
0.1248975754157646 0.3749357744524148 0.7501481046021186 F F F
0.0007124111658526 0.7502104576959945 0.7509914746145447 F F F
0.9999009589046441 0.3748115259203029 0.8750577016907929 F F F
0.2495288289629218 0.2494921246143702 0.7506995314239314 F F F
0.3750311783757637 0.3749411520186570 0.7497524842950376 F F F
0.3748120761041968 0.2496796206664932 0.8751316349471948 F F F
0.2498526655207172 0.3749072821171562 0.8749232386541462 F F F
0.4999428650644715 0.2501249651039772 0.7497547019069588 F F F
0.6250994646753384 0.3750395482989248 0.7495882111555616 F F F
0.6251383563305937 0.2498472333772587 0.8749997492429595 F F F
0.4999726660873582 0.3749822647022679 0.8748371165588938 F F F
0.7501613672988845 0.2501254629056154 0.7501724568625281 F F F
0.8752126932609419 0.3744977637316512 0.7499854821182622 F F F
0.7503546980165724 0.6251281005266921 0.8749146921365091 F F F
0.7503371094177606 0.3749864682745731 0.8748757718333180 F F F
0.9999381383589355 0.5000229964338226 0.7498961011779631 F F F
0.1249363699748624 0.6257155121540678 0.7508629431826400 F F F
0.1249041507497427 0.5000917278489773 0.8751334077486492 F F F
0.0002889012268642 0.6261092698142623 0.8751613865051584 F F F
0.2500796704523083 0.5000488945334164 0.7498518930082596 F F F
0.3752010843745471 0.6248673628431147 0.7496122199309541 F F F
0.3750469838302021 0.5001754884772562 0.8749924521248027 F F F
0.2497958412159975 0.6254103747092383 0.8749635620197502 F F F
0.4998150084387845 0.4999528718441817 0.7497128834070576 F F F
0.6250635772147835 0.6248633350947449 0.7496021099896986 F F F
0.6250454532118942 0.4999443940638399 0.8748299249453348 F F F
0.4997892094512070 0.6250273075864365 0.8749796288755920 F F F
0.7501917964964258 0.4999857269217015 0.7495238957788793 F F F
0.8752188493963140 0.6254049769663312 0.7500599236395763 F F F
0.8751371468745943 0.5000847145751214 0.8748554153452890 F F F
0.1249726983915600 0.2497113747747089 0.8749620354212426 F F F
0.1248495664565985 0.8746491740837201 0.7500779001636728 F F F
0.1255609742591650 0.7534482529891878 0.8772891510984497 F F F
0.9982027916794928 0.8734763023469383 0.8686580109081410 F F F
0.7503293670921906 0.1250784611108141 0.8754812399782956 F F F
0.2497121237116006 0.1252340635898865 0.8760688244785906 F F F
0.1252775203989243 0.1260488900646430 0.7494648670176076 F F F
0.8748096465512247 0.2501929840593730 0.8750501278735026 F F F
0.9998266208137871 0.0007362057582077 0.2502641035026180 F F F
0.2473981315406538 0.8747757495259750 0.1226453408727036 F F F
0.0613007022454927 0.9353611838619241 0.9988008337389293 T T T
0.7510131496660900 0.0002561927368449 0.0001191176127107 F F F
0.2456948618915674 0.9961088846698720 0.0001164967045217 F F F
0.9998097660501915 0.1220938951250011 0.1224767715940948 F F F
0.8750861616091063 0.7498667132457174 0.8757139831116969 F F F
0.1245314925505904 0.1257132310383571 0.2504117501952395 F F F
