#comment
1.0
16.184 0.0 0.0 
0.0 16.184 0.0 
0.0 0.0 16.184 
Al Mg Zn 
235 10 10 
selective
Direct
0.0006104171889261 0.9997515078621855 0.4978357991710455 F F F
0.8742892428011377 0.7457261696348539 0.8743118553372839 F F F
0.1402392394460765 0.9949156030353373 0.1278330161863648 F F F
0.7486221996142183 0.7486856488954731 0.7493230923469339 F F F
0.2565461805605426 0.9979479152782750 0.9992953396000557 F F F
0.3765009080210053 0.1256656021817757 0.9990928532685199 F F F
0.3776037681967342 0.9992547900543218 0.1256791883402524 F F F
0.2570022587037577 0.1264111198139336 0.1252940599913396 F F F
0.4993863962993165 0.9999280211430240 0.9994563930308392 F F F
0.6225497219365800 0.1265014170051074 0.9988507770757623 F F F
0.6214483745543011 0.0001537853989886 0.1256122866435684 F F F
0.4996873172361145 0.1258638860026180 0.1254846565744009 F F F
0.7473886454508522 0.0010722771496813 0.9985941603850591 F F F
0.8765948073048269 0.1209402066768415 0.0005750966886837 F F F
0.8654059395527604 0.0052073552113650 0.1339320725685494 F F F
0.4996106511805196 0.8737895044666142 0.8736536836659443 F F F
0.6240685217963050 0.7485655553731385 0.8740259771594714 F F F
0.1266400930567302 0.3771647767543214 0.0005394849047354 F F F
0.6235838471814023 0.8738001548110397 0.7482697926741294 F F F
0.9996410132688368 0.3798129977367823 0.1274469344136705 F F F
0.2515637613917131 0.2514700055447142 0.9992649873058614 F F F
0.3754847519819608 0.3760600073621490 0.9999098593377022 F F F
0.3769401979342191 0.2523409410551138 0.1250891510707683 F F F
0.2513647936178032 0.3767814624343824 0.1250895915899194 F F F
0.4995094372350218 0.2512322508480830 0.9993600143609433 F F F
0.6243847198995245 0.3762341963581337 0.9998457962651629 F F F
0.6223229512754594 0.2532998614693756 0.1254928503354228 F F F
0.4995794963325597 0.3767941151037801 0.1255029647780014 F F F
0.7501664583512406 0.2520322735612699 0.9991107311537123 F F F
0.8729271306441911 0.3787661261825897 0.0005065335381075 F F F
0.4999010280600136 0.7487289995524606 0.7488440340116657 F F F
0.7485780465557372 0.3762000881728513 0.1258541295172525 F F F
0.0002057866869038 0.5007018380111189 0.0003322461356361 F F F
0.1259913909444216 0.6249342961918660 0.0001606672580472 F F F
0.1261757773565500 0.5014178582272298 0.1256507354013507 F F F
0.0003716957035176 0.6248070404698697 0.1258165209514949 F F F
0.2506723108864696 0.5006207003047246 0.0000259388325972 F F F
0.3766536144008232 0.6230328299524885 0.0002441390719620 F F F
0.3752744647033459 0.5004684640876419 0.1256942230604256 F F F
0.2502257397941641 0.6252127406836129 0.1256906830300332 F F F
0.5000542630053019 0.4996153701979919 0.0000058390176179 F F F
0.6236251016690636 0.6233410579354220 0.9999994868336798 F F F
0.6248245901183533 0.5007886266956540 0.1258576368383441 F F F
0.4998926889774971 0.6238114883010246 0.1259074071214182 F F F
0.7489711557401472 0.5008414019809607 0.0006028748921193 F F F
0.8750164467640422 0.6240656896393010 0.0005188823962869 F F F
0.8736703237089192 0.5015481257791954 0.1261248649561844 F F F
0.7502744156621894 0.6260259075851110 0.1257778946663391 F F F
0.0008705731553509 0.7495140910150276 0.0024551665907486 F F F
0.1380459984889049 0.8658876122923448 0.9974866318991052 F F F
0.1239139494558673 0.7515890848834400 0.1252584056571081 F F F
0.2539624613345882 0.8714329647323587 0.8724436195264625 F F F
0.2540664378395639 0.7454401613629823 0.9995555756260980 F F F
0.3774464525394771 0.8730281989664507 0.9998311704998796 F F F
0.3769732455966174 0.7477643030344221 0.1257744118521366 F F F
0.2556924796181776 0.8710191596354983 0.1262251826796751 F F F
0.4997866671254515 0.7484426701819330 0.9995887312314087 F F F
0.6221179136716172 0.8738790775795369 0.9986904360823826 F F F
0.6232012294625365 0.7477283469151723 0.1255751633295165 F F F
0.5000980757542201 0.8735237991715835 0.1257096736784322 F F F
0.7474613540153127 0.7458328631075619 0.9989139093583195 F F F
0.3762783195399626 0.7483380230823605 0.8741344885058818 F F F
0.8778221988483929 0.7505707227009839 0.1250431692167996 F F F
0.3764256626422798 0.8735413681447478 0.7481020260908116 F F F
0.0001610704533626 0.9965651293414287 0.2464000661064171 F F F
0.2509119742789485 0.7483718220845504 0.7487574009976457 F F F
0.1250449047853495 0.9993361850957184 0.3744456993339684 F F F
0.9987057928700346 0.1248156445889323 0.3742509357598476 F F F
0.2544903205124875 0.9987635760745124 0.2529123634661988 F F F
0.3763573532428566 0.1257499834411988 0.2510064368702546 F F F
0.3762640728299695 0.9994344735533406 0.3767617530746275 F F F
0.2509906468920593 0.1258978275680342 0.3754393146979090 F F F
0.4993852590283456 0.9996389422712308 0.2515935914717899 F F F
0.6224274501891418 0.1263741381097779 0.2524683627528099 F F F
0.6234477208901560 0.9994387084148270 0.3774237134816966 F F F
0.4997570014691627 0.1257896542481184 0.3763802475031934 F F F
0.7464333789006149 0.9998120038637648 0.2552280377367075 F F F
0.9997360361904672 0.8682134196596670 0.8801616525279191 F F F
0.8752871728344819 0.9998604440918455 0.3747450676663019 F F F
0.7490615684472481 0.1262478457915241 0.3756391291180267 F F F
0.9969658838812264 0.2522861072127009 0.2475813341801837 F F F
0.1255521464908607 0.3759023868116471 0.2506658969180445 F F F
0.1243850958727664 0.2512594280510498 0.3752281174925514 F F F
0.9999054070851318 0.3761417347364023 0.3749024138281336 F F F
0.2524584060787978 0.2525284376964547 0.2504163532534685 F F F
0.3754209029084871 0.3762231694788087 0.2504979238012904 F F F
0.3754853086827781 0.2511045312020024 0.3755190718360252 F F F
0.2504873924822950 0.3760839965208994 0.3754004488689522 F F F
0.4995109023584183 0.2517313743364633 0.2510296431322518 F F F
0.6240337383344201 0.3768499366625446 0.2512429820164497 F F F
0.6243785185918086 0.2514394688660790 0.3763511392783035 F F F
0.4996736289722570 0.3757009147835504 0.3759304487178637 F F F
0.7484042962581726 0.2538172041951637 0.2530723468604615 F F F
0.8736043621335396 0.3774775913453341 0.2513112081348228 F F F
0.8743770633015615 0.2514769764687046 0.3755544810113725 F F F
0.7492690822896902 0.3766544599538086 0.3760706092175394 F F F
0.0000409504142386 0.5013881833149968 0.2512158533056057 F F F
0.1259483230883771 0.6251022006236211 0.2504033189778886 F F F
0.1254025504830524 0.5007810129380694 0.3753619588624448 F F F
0.0003096397100618 0.6260939224144302 0.3748595159098393 F F F
0.2506837306030847 0.5002492296348819 0.2505657626260894 F F F
0.3750908377909943 0.6245183755221249 0.2506325433815006 F F F
0.3751274544863369 0.4999853507344730 0.3752807676439301 F F F
0.2509929934146399 0.6245598065538651 0.3757533245886407 F F F
0.4998259821624894 0.5004137187957678 0.2510900544312801 F F F
0.6247561871628476 0.6246125624658079 0.2508943569868148 F F F
0.6249400304362699 0.5002358889378394 0.3756207812947852 F F F
0.4999696660967772 0.6250015216741295 0.3757733065288769 F F F
0.7491117889595686 0.5009283566167546 0.2508954431245713 F F F
0.8747484513941398 0.6251348632771867 0.2508939576783679 F F F
0.8744119217628936 0.5008409917210473 0.3755368355645844 F F F
0.7493942473890374 0.6245839738921446 0.3761001089647785 F F F
0.0007462127736668 0.7515673329302596 0.2479692882174100 F F F
0.1241040624895571 0.8735852391518319 0.2483157717920118 F F F
0.1257880804123029 0.7496230258215876 0.3753826611953920 F F F
0.0004966482955900 0.8742605549808111 0.3750003790781193 F F F
0.2512106212184769 0.7487366025153886 0.2508517624448854 F F F
0.3765450224327764 0.8735548552989909 0.2512157135545976 F F F
0.3750456261107816 0.7494785943664390 0.3754124087631667 F F F
0.2501333418140981 0.8738532249714057 0.3746735740870014 F F F
0.4997583674578299 0.7485500023396179 0.2513962371605445 F F F
0.6230669576984404 0.8735533497816130 0.2525608349609180 F F F
0.6250361499388714 0.7493479120749740 0.3760011980130474 F F F
0.4996455211143322 0.8737164316728100 0.3763334733505121 F F F
0.7493858752012037 0.7481131715396301 0.2521362472193038 F F F
0.8779862123270967 0.8739168414169574 0.2493321506133692 F F F
0.8749800384216220 0.7495997685595098 0.3753569753158678 F F F
0.7507892066560357 0.8738965869737010 0.3748630445092952 F F F
0.7457660010141002 0.8741364412696622 0.8741632386906329 F F F
0.1256775209563182 0.1251410990813342 0.4984656104364498 F F F
0.1264414126834063 0.9989231541373992 0.6239182905442188 F F F
0.0009339201028104 0.1260403397140082 0.6205013859845028 F F F
0.2505087330044241 0.9994756304881881 0.4992895321633923 F F F
0.3751026461229668 0.1256709601627523 0.4998121392724335 F F F
0.3753341583977183 0.9997803620348980 0.6239279352443688 F F F
0.2511461642700956 0.1256432670684509 0.6232398202421986 F F F
0.4998390876669765 0.9994619983389754 0.5004042364719068 F F F
0.6241380518761990 0.1258324728247718 0.4999474472572084 F F F
0.6238524741257939 0.9997029634662675 0.6239926442490963 F F F
0.4994125127131936 0.1256602401017666 0.6244172227258223 F F F
0.7492209152737668 0.9996011273224096 0.4983629179014049 F F F
0.8743843717287464 0.1256719700947243 0.4987307642545595 F F F
0.8748819865310490 0.9997063769256097 0.6198390482158196 F F F
0.7480182339769539 0.1254303329927200 0.6228255450950662 F F F
0.9998064007407459 0.2510879706637852 0.4983644440947146 F F F
0.1256282015535649 0.3761073195922469 0.4994510805332535 F F F
0.1256335571627391 0.2521095377933618 0.6232272881223828 F F F
0.0003370595663954 0.3767164272924367 0.6239095704643122 F F F
0.2503241818738204 0.2512399396655742 0.4994858043232718 F F F
0.3749023059848831 0.3756576980078254 0.4998123215596409 F F F
0.3752926164219172 0.2510525172038826 0.6242399462463444 F F F
0.2507013760709105 0.3758830632866943 0.6245651184324956 F F F
0.4995942660298541 0.2511047569185912 0.5001123272470713 F F F
0.6246613284229829 0.3761698879882088 0.5001044277238349 F F F
0.6239001340062469 0.2513176490859761 0.6241866873552890 F F F
0.4995172816605539 0.3754785443515896 0.6248587657586105 F F F
0.7491812479051367 0.2513940841984846 0.4995961521331839 F F F
0.8741952175176259 0.3763024230648475 0.4996727324300647 F F F
0.8745060431049780 0.2518781432964344 0.6230373256982261 F F F
0.7490222611037745 0.3758966418498212 0.6245797738557928 F F F
0.9998910564015246 0.5006707479232121 0.4993992337239778 F F F
0.1257318493997159 0.6248645031205026 0.4997944846870253 F F F
0.1258504660690373 0.5003436162049512 0.6245671862548354 F F F
0.0005810175891058 0.6245885748584559 0.6241576850295062 F F F
0.2507676334078866 0.5002964662682222 0.4998517940818815 F F F
0.3754275249574439 0.6248190704218569 0.4997743939917532 F F F
0.3750375325365035 0.5000035014290203 0.6245515405966509 F F F
0.2507537716377698 0.6244428203547550 0.6244099075542339 F F F
0.4998322051828856 0.5000571329630982 0.5000129329324384 F F F
0.6249636189614309 0.6250335008200751 0.5001365550525009 F F F
0.6247339282044768 0.5001907468750605 0.6246012097294695 F F F
0.4995924539719142 0.6244653867549377 0.6247593955352728 F F F
0.7491638920319064 0.5004641375718382 0.5002435748330880 F F F
0.8745854989119380 0.6249304636000653 0.4997052912108529 F F F
0.8743616870622241 0.5003533726378252 0.6243412807568001 F F F
0.7493719296073150 0.6246746643161771 0.6244755855971554 F F F
0.0005498221343835 0.7497045139327505 0.4995053205216751 F F F
0.1262311590007107 0.8746020154664805 0.4992419593388018 F F F
0.1263244865972883 0.7491963554538068 0.6243019040807271 F F F
0.0024248857334922 0.8740651018970679 0.6228037016763571 F F F
0.2507977965171659 0.7493194607496111 0.4999052092068731 F F F
0.3749923496952836 0.8738995957767424 0.4999179885947456 F F F
0.3752363184731875 0.7492150402217358 0.6242749339850658 F F F
0.2504480589514754 0.8737769747086053 0.6244503500908900 F F F
0.4996897025468431 0.7494807032936719 0.5000723874693425 F F F
0.6249131327475083 0.8735983409191808 0.4996789336234532 F F F
0.6245043420166846 0.7489668947665329 0.6242500108371863 F F F
0.4996740630118312 0.8739660366511482 0.6240947023674308 F F F
0.7496756033835981 0.7494630384974368 0.4997160838345190 F F F
0.8748903632869682 0.8740964682759619 0.4991115403161012 F F F
0.8750418940794190 0.7487205054017676 0.6234191167202863 F F F
0.7485734692422281 0.8744259036255299 0.6234220644251782 F F F
0.0022319976781772 0.7481987297662234 0.7500176361019752 F F F
0.7486162845409362 0.6235206489962082 0.8743462449773909 F F F
0.8744542012545101 0.5008600319423574 0.8745979745140297 F F F
0.9960609844979417 0.1270779750408255 0.8769190900810216 F F F
0.2526445018519946 0.9978399631945372 0.7487284723435151 F F F
0.3744209756316611 0.1253837069887807 0.7496091941825758 F F F
0.3769481408106666 0.9993266121553024 0.8739727962048703 F F F
0.8749818700028412 0.6244252577269390 0.7490361199587324 F F F
0.4995830295856543 0.9998902846638180 0.7487254576606442 F F F
0.6242156788108294 0.1258497649113559 0.7491796742499134 F F F
0.6227956676683155 0.9996902685159210 0.8740873288646256 F F F
0.4999814849522385 0.1254989607938487 0.8736654441308245 F F F
0.7464437902485094 0.9995693459585018 0.7504323863601532 F F F
0.7490615162450747 0.5003014159292030 0.7490867269068149 F F F
0.8783267592684353 0.9972442154604721 0.8820343227096704 F F F
0.7471852748795159 0.1257610293925631 0.8753212228851913 F F F
0.9994621572773928 0.2540320136222292 0.7499752710740455 F F F
0.1256294552004535 0.3756606350829169 0.7498832366970993 F F F
0.5002394208855956 0.6240609885360399 0.8739771074154541 F F F
0.9999228887796380 0.3778456319881486 0.8748179922071352 F F F
0.2520767615745960 0.2526525438709636 0.7497581535387169 F F F
0.3754812092871010 0.3758311009441625 0.7494526539072036 F F F
0.3755242924837804 0.2504513238344904 0.8746423311895880 F F F
0.2506399427713553 0.3763758418911750 0.8747267574310736 F F F
0.4994773142207660 0.2508261648611014 0.7494021604078985 F F F
0.6242777136772276 0.3760143740732444 0.7491838158052434 F F F
0.6241579608668938 0.2513609227434397 0.8741397372001972 F F F
0.4997187746858581 0.3757902496474675 0.8742264523579081 F F F
0.7480963483440862 0.2519152592377544 0.7489398302774549 F F F
0.8739235486547443 0.3763401171959968 0.7492487897827953 F F F
0.8723544323806851 0.2524771322517928 0.8749380935769557 F F F
0.7483792721953485 0.3768738137868332 0.8744201335189613 F F F
0.0001208188391270 0.5005797203268215 0.7498720071674833 F F F
0.1257036856427658 0.6241566759161431 0.7497783642793838 F F F
0.1255936203862598 0.5007716589378437 0.8746015497530125 F F F
0.0007497122220393 0.6245464268739671 0.8757552997130349 F F F
0.2508427871625420 0.4999675899039740 0.7492516782487729 F F F
0.3751727911060411 0.6245454202835531 0.7493228803055005 F F F
0.3753708575221126 0.4997356843759688 0.8744388811731669 F F F
0.2510266808308244 0.6240879025366218 0.8741857486602893 F F F
0.4998093664304941 0.5000951283252417 0.7490725953872480 F F F
0.6250875347993430 0.6245702281582542 0.7494232015631175 F F F
0.6242638973771069 0.5000696716717528 0.8741342258859639 F F F
0.7486802227645412 0.8738515732903036 0.1251423872169650 F F F
0.8754441076496230 0.1226618434059811 0.7489192889839130 F F F
0.1231823715766492 0.1227471568041830 0.0054403475252054 F F F
0.1213510024303376 0.9946291108740933 0.8777228340266244 F F F
0.1251488580586140 0.1269290452075044 0.7520009422813062 F F F
0.8761408509705377 0.8764750103187587 0.7499932372968071 F F F
0.7480767728852545 0.1292404653726328 0.1271379676856372 F F F
0.9979541325984784 0.2517499724799899 0.0058193284732930 F F F
0.9970569073210755 0.9319122721004766 0.0616783168665238 T T T
0.1238249019178022 0.1270714592839121 0.2448519509924726 F F F
0.8625998790230461 0.8672305134685844 0.9941475808013936 F F F
0.8744958699046921 0.1277426262732915 0.2540699708103228 F F F
0.8718039278103372 0.2548552245687625 0.1276026052122283 F F F
0.1286734888676578 0.2557621863083894 0.1257174742247743 F F F
0.1266047295458404 0.7464151949492746 0.8729581822805830 F F F
0.1256489377892574 0.8729714821985046 0.7491504717848753 F F F
0.9924105409636806 0.1187998929898204 0.1258503163804972 F F F
0.0012071957093814 0.9988887487389816 0.7476120934973193 F F F
0.2526305125400621 0.1246826434401362 0.8756086825818507 F F F
0.1254825421249624 0.2534513668934346 0.8762677178623494 F F F
