#comment
1.0
16.184 0.0 0.0 
0.0 16.184 0.0 
0.0 0.0 16.184 
Al Mg Zn 
224 8 23 
selective
Direct
0.0003022317978901 0.0002325556277461 0.4983205389102207 F F F
0.8742202883056319 0.7497117789684250 0.8725179954321435 F F F
0.8746626066450667 0.8746185970475702 0.7473673747558222 F F F
0.7498253795304947 0.7499576674267078 0.7477205366068367 F F F
0.5012018714070071 0.8741656652037720 0.8726082242844669 F F F
0.6252731990644979 0.7498998503643879 0.8726330439982558 F F F
0.6252496787522571 0.8748231842023720 0.7476031545780302 F F F
0.5003564053372574 0.7500202981725820 0.7476817342537748 F F F
0.5023083810219656 0.9980433110047198 0.9991306822729195 F F F
0.6260444083108291 0.1245960536053697 0.9989376351867835 F F F
0.6263220593000437 0.9993371331488757 0.1243371022321834 F F F
0.5037709553815075 0.1247515394022578 0.1275798575165263 F F F
0.7491234222191990 0.9986089260216423 0.9981267518805385 F F F
0.8706187255238692 0.1243857098432848 0.9998476299411877 F F F
0.8719832702940782 0.9991380173392121 0.1263812464051006 F F F
0.7482006741754812 0.1252110754377941 0.1251804081664237 F F F
0.2506671634251118 0.8728684676176124 0.8723110753645872 F F F
0.3763238956028739 0.7494338754369745 0.8727649451437964 F F F
0.3757388759586939 0.8744489775034896 0.7472866605404632 F F F
0.2505134732149198 0.7496915264179932 0.7475125372007391 F F F
0.9991787785609539 0.8732755070601925 0.8723191331114802 F F F
0.1246222827612458 0.7487910232858809 0.8724742159099500 F F F
0.1246999744132897 0.8743951412103362 0.7469780026653858 F F F
0.9993489471003631 0.7497697893191146 0.7476751561376512 F F F
0.5046808150555511 0.2504093568091386 0.0001165563578054 F F F
0.6260905171768080 0.3762821801149244 0.9985153327082444 F F F
0.6265774077317303 0.2504039911769126 0.1252969709801518 F F F
0.5028839267719364 0.3758572032121170 0.1267503757494563 F F F
0.7504062058109680 0.2506969335221554 0.0002223515509503 F F F
0.8728722664395229 0.3772661506982369 0.9993305298441907 F F F
0.8737146611812573 0.2504009466289432 0.1302814714032186 F F F
0.7492007835808480 0.3757621262537296 0.1246001097521287 F F F
0.9981762172015344 0.5016993267604712 0.0000133771799404 F F F
0.1243359932064119 0.6261103831196229 0.9985548585375020 F F F
0.1247048685317302 0.5047587967430578 0.1272188417505916 F F F
0.9991297437382107 0.6262771068641251 0.1243454765745218 F F F
0.2504289085848311 0.5044077636372863 0.9996379227794302 F F F
0.3764879466080258 0.6255752750657307 0.9983811385823749 F F F
0.3762668191094964 0.5030311654414363 0.1266010992886999 F F F
0.2502415759655912 0.6268501634380090 0.1251364583457816 F F F
0.5021265107862113 0.5019066923824139 0.9987429740956055 F F F
0.6257063734750247 0.6254948332048613 0.9976090752422287 F F F
0.6263485011303561 0.5010728997148963 0.1241650885561130 F F F
0.5014442816358279 0.6261345781453936 0.1238255988525101 F F F
0.7494935930935550 0.5012986349325322 0.9977980409062843 F F F
0.8741375708989010 0.6253638214150947 0.9979690873478968 F F F
0.8738855979985971 0.5013183134680929 0.1242804972866075 F F F
0.7497107582469817 0.6254132310684147 0.1237161073087407 F F F
0.9986083366849874 0.7494030214108397 0.9984385965548688 F F F
0.1247388918731737 0.8703613797749171 0.9997485624548029 F F F
0.1248056913325682 0.7482506858096620 0.1250811165990567 F F F
0.9992755771216576 0.8721582309720514 0.1268709849790496 F F F
0.2509342693106965 0.7492660464414777 0.9987117871955739 F F F
0.3772175491368294 0.8729576299886890 0.9990670057557913 F F F
0.3763396159588671 0.7490697935935094 0.1240491904972010 F F F
0.2504035401243758 0.8712467202563163 0.1277374130986736 F F F
0.5011785653103459 0.7495547948755570 0.9976863857964947 F F F
0.6256332660785578 0.8739654490018328 0.9979415193300415 F F F
0.6256357327131167 0.7496041849176081 0.1233619578090801 F F F
0.5012362963743017 0.8738827889619837 0.1242173567634541 F F F
0.7496401805495090 0.7495964494857683 0.9975693644985630 F F F
0.8732629797362917 0.8732703924396261 0.9987532359711238 F F F
0.8737811013456631 0.7491625536731529 0.1239212965498512 F F F
0.7491646801801751 0.8741233928280263 0.1241564865727079 F F F
0.7500492782536696 0.6251501756527862 0.8726175834673969 F F F
0.8742403637473272 0.5009695929515396 0.8728516521282641 F F F
0.8747591641569625 0.6251646081966933 0.7476268777947832 F F F
0.7500187535174785 0.5002966707523290 0.7476966997497179 F F F
0.5009342578868690 0.6253057422759764 0.8724881637230801 F F F
0.6255812258620475 0.5007888637513641 0.8726181683312839 F F F
0.6252466440297273 0.6250840473117899 0.7477567668347023 F F F
0.5004246189050194 0.5004691965237718 0.7474024231224172 F F F
0.5001379263567963 0.0000759215934267 0.2501002434951657 F F F
0.6253982838135849 0.1253381603413810 0.2501728318277271 F F F
0.6250673316554599 0.0002408726044927 0.3744020341047127 F F F
0.4983876566774519 0.1251662119301447 0.3734829239476158 F F F
0.7498284700977649 0.0010932055150058 0.2499631901166909 F F F
0.8760991886916920 0.1257643056679876 0.2508873175126177 F F F
0.8747475108596512 0.9997760648574594 0.3741599541862823 F F F
0.7498863738962078 0.1255588842027746 0.3746490465831271 F F F
0.2505781714734234 0.6263273821336325 0.8725701460852771 F F F
0.3759794489722392 0.5018324907782965 0.8721977064893026 F F F
0.3757682712461831 0.6252666030506082 0.7474844772883833 F F F
0.2501987995245350 0.5007226025526683 0.7469120330584531 F F F
0.9989598854663218 0.6255639293561401 0.8728332539550743 F F F
0.1244139439695423 0.5018449247990709 0.8724513456693990 F F F
0.1246339673393013 0.6252851255002750 0.7474110932202100 F F F
0.9994579491041122 0.5004156299875103 0.7473641907778041 F F F
0.4991694259964112 0.2503353709668593 0.2508613390910454 F F F
0.6255394700591071 0.3751033852458764 0.2499910564995586 F F F
0.6246358813342858 0.2501566611450203 0.3745807827141158 F F F
0.4991770583602772 0.3748958993784139 0.3738928942214020 F F F
0.7496826617454724 0.2502134088909351 0.2503663456879081 F F F
0.8763557516997283 0.3745176217385901 0.2504746676113648 F F F
0.8793408459091403 0.2502982313101703 0.3711634515523709 F F F
0.7499394193156805 0.3750112979717964 0.3746266482026689 F F F
0.9996901983916610 0.5007156082262199 0.2500069945090881 F F F
0.1250463152611700 0.6263187903664692 0.2503315313021075 F F F
0.1252861617464434 0.4997423486101875 0.3739572018960758 F F F
0.9998451039239848 0.6253881628466799 0.3746839627682976 F F F
0.2510008541837391 0.5006606567612842 0.2507996905473123 F F F
0.3755795695263773 0.6262515451458133 0.2499960989286464 F F F
0.3744993143068860 0.4992955736875387 0.3739661442288809 F F F
0.2500947994228773 0.6252398783105103 0.3748715095425827 F F F
0.5006980005210119 0.5005107656733112 0.2503683973540977 F F F
0.6256329126337287 0.6254557399027141 0.2495930208676785 F F F
0.6253369793078692 0.5001539420340082 0.3744738216085994 F F F
0.5004098615963517 0.6253170556416973 0.3746334398469995 F F F
0.7505394831252649 0.4994692582644855 0.2497836161884656 F F F
0.8747225845752613 0.6252758818401873 0.2498565075627365 F F F
0.8744572045436112 0.5006901875970462 0.3746492670316210 F F F
0.7496772823671506 0.6252074142123056 0.3745214137447680 F F F
0.9998184381313709 0.7493909244213713 0.2500383225470386 F F F
0.1248348949248315 0.8748836836583994 0.2508433362522939 F F F
0.1250871618150804 0.7500710805861299 0.3750187278688246 F F F
0.0002166561316315 0.8755091733496831 0.3738681453511321 F F F
0.2500208654705158 0.7494039854203685 0.2501805641666651 F F F
0.3753360157325907 0.8749662185736621 0.2501268459036702 F F F
0.3752810927101955 0.7502059226578721 0.3746592262304706 F F F
0.2501053227826366 0.8762518316923160 0.3735773790604245 F F F
0.5006503088773684 0.7499698853781394 0.2495894348003636 F F F
0.6253646916203756 0.8748272039121776 0.2495120114402117 F F F
0.6249976477754283 0.7500972209958607 0.3746205423744559 F F F
0.5000169454985031 0.8751512531340797 0.3742991162030674 F F F
0.7497495801276979 0.7496858439092635 0.2496698067690710 F F F
0.8745378509259434 0.8746768799618684 0.2503636940371409 F F F
0.8747814860177834 0.7500254484792712 0.3747916021721304 F F F
0.7495838967685213 0.8748484737442455 0.3744309015943739 F F F
0.7498048825110596 0.8744703971559967 0.8725500201881213 F F F
0.1255871598498066 0.1266838932631721 0.4943287326927524 F F F
0.1249382904803862 0.0013344707001792 0.6218295578694234 F F F
0.0001782173057750 0.1254767383586622 0.6222710216490536 F F F
0.2503138924051914 0.0005930974707593 0.4975599729373616 F F F
0.3740857924785883 0.1253328103886905 0.4971894372289203 F F F
0.3756588439608232 0.9996115093885256 0.6227479664848535 F F F
0.2496915186165450 0.1254272367591948 0.6220555041102309 F F F
0.4998009331115037 0.9998204810344216 0.4981125499010438 F F F
0.6249611248223242 0.1247340116955694 0.4985128269490572 F F F
0.6251576233890607 0.9992786369702901 0.6231413798560314 F F F
0.4999454859908993 0.1250522630274184 0.6227506709135134 F F F
0.7500666511150702 0.9994096598735177 0.4986382920580166 F F F
0.8751411480129481 0.1257439201087824 0.4983184076927060 F F F
0.8747324933199906 0.9997318379396509 0.6227704924061787 F F F
0.7497131650484060 0.1250087512604854 0.6230433527498133 F F F
0.0030458893832086 0.2499747701660144 0.4934937499500578 F F F
0.1254746143911975 0.3731292536577678 0.4952114467856337 F F F
0.1249331704184767 0.2500029280573877 0.6212699943199339 F F F
0.9997926392931031 0.3750831268807843 0.6223919943365711 F F F
0.2475741725520675 0.2497858376418894 0.4940161812535121 F F F
0.3745508942019474 0.3746872669700467 0.4978318464110530 F F F
0.3737806140922801 0.2501655759055657 0.6217722719645780 F F F
0.2498480598561526 0.3748673471740084 0.6225076946762832 F F F
0.4992984487802884 0.2501985104934672 0.4978476738359690 F F F
0.6250727488185315 0.3759666049095849 0.4986523620339179 F F F
0.6253491010641530 0.2504492530531963 0.6227627719417748 F F F
0.5001805445832712 0.3754498655562342 0.6227598914201590 F F F
0.7505147921131620 0.2505568529065667 0.4978002817291406 F F F
0.8749528957704517 0.3748874887263390 0.4985362954733736 F F F
0.8757543014492386 0.2504209846515398 0.6223447646360357 F F F
0.7498610466635864 0.3757110994763994 0.6231641280778035 F F F
0.9996587507055766 0.5002516962903815 0.4988611951359279 F F F
0.1244824207116397 0.6251617991425240 0.4989743174511586 F F F
0.1247219919762478 0.4992416731668824 0.6222099797372276 F F F
0.9992994669361694 0.6252562770635839 0.6235192254943082 F F F
0.2504063761544131 0.5000229620946721 0.4983798939220537 F F F
0.3759831882403110 0.6249623568314988 0.4986307656967171 F F F
0.3758121540879494 0.5004876733876962 0.6229639024659253 F F F
0.2502361372312212 0.6251626979130546 0.6230746105993770 F F F
0.5002418795551304 0.5002340010994621 0.4983338295134521 F F F
0.6253586995565189 0.6252619358079585 0.4988267368651342 F F F
0.6250999152890238 0.5004460666303273 0.6232601408012969 F F F
0.5004414013790206 0.6250934528838015 0.6231336076675961 F F F
0.7500975447218099 0.5003445010985126 0.4987448095625387 F F F
0.8747673022808564 0.6249377341917518 0.4987876919624850 F F F
0.8747480690908234 0.5002396574002338 0.6229467977864058 F F F
0.7501880920691935 0.6249988241404096 0.6232131012468960 F F F
0.9990664204825899 0.7502175188334480 0.4988088161148856 F F F
0.1249066328544317 0.8755508853673841 0.4981943103905214 F F F
0.1246804393450038 0.7498529502583944 0.6230860383469005 F F F
0.9996796333443841 0.8748337467396377 0.6230941117100753 F F F
0.2506159937769983 0.7501969614595474 0.4988690328082716 F F F
0.3754563597578827 0.8753859037700182 0.4981650267660468 F F F
0.3758478094694589 0.7499354677705533 0.6231493564974281 F F F
0.2500681010667317 0.8751476345930455 0.6227824965108588 F F F
0.5005534724186119 0.7501342206060321 0.4988805044524858 F F F
0.6251399515187943 0.8747116387274072 0.4986948746555287 F F F
0.6252265344224007 0.7500710237195001 0.6234702664721460 F F F
0.5003703410947474 0.8748395399162687 0.6228412368500794 F F F
0.7499169682199898 0.7499590728523806 0.4988388704881599 F F F
0.8749515166673790 0.8751850492342945 0.4983888373675427 F F F
0.8746294511571162 0.7500438300590165 0.6232896647860576 F F F
0.7501436147194408 0.8748833034630451 0.6230667787887305 F F F
0.9995219091028543 0.9997569271363782 0.7468552322916282 F F F
0.1247535113982272 0.1251127300049504 0.7456724299521602 F F F
0.1248951993624234 0.9990292726290255 0.8699627338871229 F F F
0.9987592411746682 0.1250243633782268 0.8704726627873837 F F F
0.2503366554169560 0.9997051706427101 0.7462005868751476 F F F
0.3754901418743271 0.1247701974040906 0.7462850565286768 F F F
0.3766440864654236 0.9984837828489932 0.8714017735554405 F F F
0.2502059157326414 0.1247296419943557 0.8692424256006006 F F F
0.5006039658431595 0.9992911480138043 0.7473401331707605 F F F
0.6253742359996276 0.1247261311541722 0.7474289378468484 F F F
0.6257598972035653 0.9990206057758158 0.8727830466838612 F F F
0.5022012174893582 0.1245713776643494 0.8722705781108987 F F F
0.7497701610804581 0.9994145694048433 0.7475598981465209 F F F
0.8743512451951406 0.1248098323427614 0.7470208049300229 F F F
0.8734020169580130 0.9992177623247165 0.8721816827754857 F F F
0.7489143904480550 0.1248829927335202 0.8727641902009499 F F F
0.9995261998169885 0.2505833337465638 0.7467065404637039 F F F
0.1244471702631115 0.3755213833052632 0.7467488249720646 F F F
0.1246672924594916 0.2503260962041620 0.8700157599368152 F F F
0.9985667729353561 0.3765811407441325 0.8720730621386088 F F F
0.2499314544788499 0.2502680060121152 0.7457441069225310 F F F
0.3756246870072469 0.3756180244042370 0.7468407918857356 F F F
0.3760590020827689 0.2501453062742308 0.8699365001484745 F F F
0.2500408381094393 0.3764239954532712 0.8702531900823768 F F F
0.5008331447190086 0.2504591114557020 0.7469591600315326 F F F
0.6253667747975625 0.3758286463037758 0.7475307286531918 F F F
0.6264989015051927 0.2505140586887726 0.8728224042385282 F F F
0.5019057046876103 0.3759768038696077 0.8722493393031496 F F F
0.7499196170979413 0.2504981312654890 0.7473487715998277 F F F
0.8745929553129583 0.3757719137776619 0.7474133800625691 F F F
0.8731790152181521 0.2506102894507134 0.8725063344099241 F F F
0.7495417569428379 0.3759891431706696 0.8729245093635067 F F F
0.9997417785332128 0.9999064488244643 0.0021469067546577 F F F
0.1251551865311687 0.1256657674786705 0.0089300831656533 F F F
0.2497877540822540 0.9978430806356072 0.0033584412494486 F F F
0.3773099030565668 0.1255045906217022 0.0033915278070056 F F F
0.9975524332135834 0.2497972397200464 0.0044823441056407 F F F
0.3755490200857994 0.3752313525273990 0.0017117172985700 F F F
0.1250758344054980 0.3770527362845131 0.0049254990319840 F F F
0.2490982896487439 0.2497584045649080 0.0086194078514542 F F F
0.3739056197622452 0.0013632587102763 0.3738058895719441 F F F
0.3750359187458077 0.1244373292082641 0.2505448275952435 F F F
0.2511999411175368 0.9995383002424576 0.2506490876557652 F F F
0.9988403161583435 0.1198362652648053 0.3750347595405258 F F F
0.1254422789758119 0.0006699968402574 0.3739733469764244 F F F
0.1267765260445810 0.1176949653776600 0.2490999247399494 F F F
0.9995589077566994 0.9997669304002589 0.2496804437345199 F F F
0.2480764845923884 0.3730259053800211 0.3741038822412925 F F F
0.3777390275350151 0.2508649681131009 0.1315514295430766 F F F
0.2475756754221051 0.1269086058671614 0.3731599631322252 F F F
0.0633611617407866 0.2500690750288283 0.3111083845351417 T T T
0.9965132410468410 0.3757446654110623 0.1300880709989117 F F F
0.1180631615192830 0.2515561057643400 0.1399017927418982 F F F
0.1267086819194277 0.3820214565367717 0.2483388134740827 F F F
0.9981898547871528 0.3799482323487239 0.3755785371596321 F F F
0.2532683433301587 0.1233952033510217 0.1340004798823452 F F F
0.3781316137477967 0.9973483317137847 0.1275939983309851 F F F
0.2460415323547936 0.2503906871960298 0.2539854947088495 F F F
0.3746444698168644 0.3752328348636242 0.2505296628035087 F F F
0.9956217260423266 0.1265789676991996 0.1329433770129081 F F F
0.1243957753660920 0.9953790541698733 0.1302331093196086 F F F
0.3718440500211400 0.2502209732785751 0.3727166176645026 F F F
0.2520097941818015 0.3788137760157137 0.1303452526260351 F F F
