#comment
1.0
16.184 0.0 0.0 
0.0 16.184 0.0 
0.0 0.0 16.184 
Al Mg Zn 
220 25 10 
selective
Direct
0.9988543417304236 0.9990582818971738 0.4987304468310822 F F F
0.8720704078971889 0.7421922818263801 0.8725720582213791 F F F
0.7478729846359333 0.7462890878644417 0.7460899193435648 F F F
0.5031553343826018 0.8732445691918701 0.8736952874389097 F F F
0.6225422225116440 0.7467630564133145 0.8738003965481975 F F F
0.3831314641900177 0.1267834337846695 0.0001262554999692 F F F
0.3838127197004462 0.9984014965593931 0.1278612234309067 F F F
0.6223193317760197 0.8740777076293648 0.7461385673836733 F F F
0.5024419576221286 0.9996881755226379 0.0003412171784585 F F F
0.6206814972173542 0.1291219503354678 0.0017737726128293 F F F
0.6205452402623590 0.0010376908372523 0.1293314807887984 F F F
0.5007564859748704 0.1271836737564037 0.1272120708264668 F F F
0.5004969941439217 0.7485103941486173 0.7481970386037105 F F F
0.3774161834320939 0.7484096951635361 0.8738970865863787 F F F
0.3790026524591081 0.8731881294681938 0.7473215168261409 F F F
0.2551836151851144 0.7461564410895142 0.7459732562853882 F F F
0.9974327831603141 0.7458873397154447 0.7454597896362249 F F F
0.1265494927351278 0.3831689118926681 0.9998556001987499 F F F
0.7474653231865982 0.6227639037166998 0.8736969437639316 F F F
0.9975094109706961 0.3819911289505791 0.1279320492619189 F F F
0.2565288941760759 0.2560379724602881 0.0007819553397106 F F F
0.3777477260813915 0.3783350102171524 0.0002470509088525 F F F
0.3791529322663259 0.2537381297935696 0.1267299665999158 F F F
0.2531200308774953 0.3788562062699594 0.1268583497335180 F F F
0.5010333981734043 0.2533555830823576 0.0004019447138879 F F F
0.6230200657318994 0.3778273812209582 0.0003151557908538 F F F
0.6241795844584264 0.2523031309589484 0.1268807468557843 F F F
0.5005176459476288 0.3767905525964363 0.1264805727426208 F F F
0.7454738914220715 0.2551682464520836 0.0004170346289666 F F F
0.8697994664632653 0.3822043441151936 0.9996309252217708 F F F
0.8729431440773946 0.5016427588237413 0.8735662661296599 F F F
0.7465529869488793 0.3785529241419606 0.1270296507793003 F F F
0.9989768671500457 0.5015251557511063 0.9997315218972037 F F F
0.1259342740244333 0.6216016699645043 0.0015252362752589 F F F
0.1261722901772758 0.5009613943927292 0.1269339286418917 F F F
0.0001667482014575 0.6216069794492658 0.1273264104604630 F F F
0.2524871956676190 0.5017426809203913 0.0010668755625156 F F F
0.3775633500623398 0.6235509230740488 0.0004109636378736 F F F
0.3759521013430760 0.5013243520242079 0.1264478167019626 F F F
0.2500924353876917 0.6256724429005137 0.1269552547278504 F F F
0.4999383739681290 0.5005587191847163 0.0005524625844450 F F F
0.6231576399793716 0.6230392638345292 0.0006851298842072 F F F
0.6241054641203727 0.5009994517424374 0.1267501627017171 F F F
0.5002159226563748 0.6243485074601309 0.1267698727727924 F F F
0.7472762659887656 0.5013962497450734 0.0002109302376488 F F F
0.8722969162081743 0.6218819033582668 0.0007887071728098 F F F
0.8724804329456881 0.5014782672170955 0.1269466135522451 F F F
0.7488055750912225 0.6240243070408062 0.1275904056741040 F F F
0.9972323155943974 0.7429964960346569 0.9983135842325087 F F F
0.8736183447890113 0.6224057786224686 0.7475679761732816 F F F
0.7484933675602403 0.5002286466377085 0.7484327397973191 F F F
0.0088635877137828 0.9319120673816407 0.0650155943871676 T T T
0.2554695752123017 0.7467626082299287 0.0011993895324328 F F F
0.3829693586578048 0.8708182369333064 0.9994878084283557 F F F
0.3783569146060150 0.7471254212765297 0.1272237479199949 F F F
0.5001254459972743 0.6240458764288020 0.8740259265131521 F F F
0.5014873544860360 0.7476125990078983 0.0002291451982510 F F F
0.6226909452327217 0.8732505520620999 0.0024319235133534 F F F
0.6231752431428125 0.7471825808165635 0.1274732944417546 F F F
0.5014889326394338 0.8726215192257992 0.1272969840585995 F F F
0.7447989459346054 0.7439956565400555 0.0018218724255643 F F F
0.6237150207408927 0.5005964159027000 0.8739173799809777 F F F
0.6240474001058310 0.6237656256304283 0.7482869174560299 F F F
0.7435719798535109 0.8726336708661357 0.1321016797362508 F F F
0.9972199498574702 0.9891805324453229 0.2503065593997096 F F F
0.5004090752826769 0.5005441851378249 0.7487077157062183 F F F
0.1252562634993181 0.9972170973309845 0.3786239058724205 F F F
0.9972826259982494 0.1225056804023372 0.3769348591702490 F F F
0.2545244025466095 0.9986450319476887 0.2574372910322167 F F F
0.3790731334985039 0.1260061675762447 0.2538687009512836 F F F
0.3779410677403580 0.9998462722848400 0.3780601968913236 F F F
0.2520859527196506 0.1260731182016187 0.3772915084033696 F F F
0.5013501798093616 0.9998160325121882 0.2532372010036296 F F F
0.6232455013542321 0.1262924538209602 0.2525186800516052 F F F
0.6236864647879190 0.9997480481728741 0.3767415722633885 F F F
0.5008126960896779 0.1264296419374063 0.3762838453148144 F F F
0.7468763934633780 0.9994929137928057 0.2531681892611805 F F F
0.8719911592001713 0.1215412040702075 0.2552675436711309 F F F
0.8731464123384447 0.9982093101361967 0.3773342593559609 F F F
0.7478012336763951 0.1255846676406305 0.3770078133094448 F F F
0.9964748139695272 0.2516407727282419 0.2546914321745024 F F F
0.1255012217105921 0.3785019115265845 0.2534666307909808 F F F
0.1253724030281495 0.2525307920961085 0.3766111327340119 F F F
0.9994418886403387 0.3767554321867082 0.3762528522033575 F F F
0.2534914093660330 0.2537657984249630 0.2538835571453540 F F F
0.3767337568993195 0.3768550197998218 0.2513568652269036 F F F
0.3765737053848139 0.2514309402245662 0.3762747342345995 F F F
0.2512307498633082 0.3768091291607912 0.3760354400583638 F F F
0.5010301662325705 0.2520430557353190 0.2517607397723674 F F F
0.6237068671221213 0.3763545729932385 0.2514378424932177 F F F
0.6237424077418461 0.2514539199103628 0.3760651246690538 F F F
0.4998221074609646 0.3759436762484923 0.3757167298680487 F F F
0.7462504779928333 0.2513687578354214 0.2542323028604117 F F F
0.8723828790387772 0.3776450494334535 0.2533291437115384 F F F
0.8729963609200709 0.2506416181157571 0.3762256970052241 F F F
0.7483506833435266 0.3764799253523228 0.3764256495036525 F F F
0.9995183891766355 0.5006787005305262 0.2528290914403933 F F F
0.1256615547131362 0.6233959324709160 0.2524632547821180 F F F
0.1259071366085888 0.5006881094877751 0.3756648754446514 F F F
0.9996446128032548 0.6233086285704130 0.3770585058264621 F F F
0.2512738517669276 0.5009011289053195 0.2515078848373404 F F F
0.3763797485561228 0.6238035707563337 0.2514987050346130 F F F
0.3758650268379678 0.5001991507886977 0.3756155896589601 F F F
0.2514456523449148 0.6234216529344003 0.3764038706611661 F F F
0.5001809685960323 0.5002464916730913 0.2511716929198147 F F F
0.6240538743503428 0.6239303517282008 0.2519120959387225 F F F
0.6239990992226587 0.5001321616545040 0.3757355356376535 F F F
0.5000511729948681 0.6242892763084262 0.3757095266887735 F F F
0.7482166735959839 0.5003632932171189 0.2523437582706982 F F F
0.8736408838928007 0.6223874750265402 0.2533441692311290 F F F
0.8737824919337122 0.5001963275674978 0.3765646644916987 F F F
0.7488721846185533 0.6238029813273532 0.3768804571062765 F F F
0.9999885490660654 0.7485058510298480 0.2595278750209489 F F F
0.2532785236355709 0.6222327699356740 0.8744446493865351 F F F
0.1266394369896570 0.7481203185090191 0.3775325005606298 F F F
0.9998817671735847 0.8737161472013909 0.3783146427051238 F F F
0.2515944572287154 0.7467755060527104 0.2541769054679064 F F F
0.3788969836432147 0.8731470236065809 0.2541305583038967 F F F
0.3762717347064400 0.7485378930345579 0.3763763658915490 F F F
0.2510778898854726 0.8728927968130455 0.3765301278000358 F F F
0.5006957974948930 0.7481188917117655 0.2523785853479862 F F F
0.6229015551692720 0.8737101272199546 0.2534161629880575 F F F
0.6244455075701274 0.7487659855038512 0.3763210442601129 F F F
0.5006755459760606 0.8733874982450315 0.3767320378523342 F F F
0.7472414782155350 0.7475139031913660 0.2538337331590509 F F F
0.3768901465304895 0.5009941183892226 0.8738745037025218 F F F
0.8732613662018754 0.7482798450193012 0.3774957221207443 F F F
0.7486111842337099 0.8735841818827179 0.3764791967360641 F F F
0.3770368088909715 0.6239629129358889 0.7488655985168364 F F F
0.1257331713611864 0.1263447000508193 0.4973896218977900 F F F
0.1270072434727750 0.9997561352880396 0.6168503961654368 F F F
0.9983216793970191 0.1275780668672409 0.6179436986615519 F F F
0.2522224433289877 0.9995267106651016 0.4980142823279105 F F F
0.3768380621585117 0.1262535723329249 0.4993812734760268 F F F
0.3783467335042164 0.9999830343772570 0.6221833723340086 F F F
0.2536864711068793 0.1263361659543382 0.6203788206404162 F F F
0.5007604740641969 0.0000385483570460 0.4996203181939400 F F F
0.6239128631171811 0.1262823752900022 0.4991513780843463 F F F
0.6238223416653177 0.0001112349961401 0.6225191320578525 F F F
0.5009310728796157 0.1262740734924545 0.6232775153405837 F F F
0.7480356311328076 0.9994742954760831 0.4984426205290918 F F F
0.8728763742237776 0.1259433119429008 0.4982905895012015 F F F
0.8704432755531971 0.9998670776037297 0.6180310980619584 F F F
0.7471812887706235 0.1270546610814309 0.6213228139970506 F F F
0.9993615740364833 0.2516140345227353 0.4978893150353947 F F F
0.1260204755219969 0.3765126736857720 0.4989423584861792 F F F
0.1259521242815639 0.2535505470069019 0.6204735185489838 F F F
0.9997196077453144 0.3772140500778259 0.6219588489789311 F F F
0.2517490379767979 0.2520765783662076 0.4992064447795910 F F F
0.3758424355603915 0.3760434004651113 0.4996761248121215 F F F
0.3771143403184833 0.2515108735778058 0.6230257908380850 F F F
0.2518629018789289 0.3768547642359726 0.6228802962053904 F F F
0.5001346856452596 0.2518074074729814 0.4997788399213302 F F F
0.6241992659487251 0.3762679765712890 0.4996814244846661 F F F
0.6239070489326862 0.2519052845822159 0.6230479408481391 F F F
0.5002362282615310 0.3764117330838390 0.6240350113966727 F F F
0.7483181543785863 0.2517821381110507 0.4994042827918413 F F F
0.8737541753292445 0.3762787955475934 0.4989756297084312 F F F
0.8733401549902219 0.2530599311984110 0.6208601157291119 F F F
0.7487318742680692 0.3767093827625292 0.6232935207052042 F F F
0.0000203919302808 0.4999520701543957 0.4995170534093290 F F F
0.1259208992593549 0.6235947801557504 0.4990269009615697 F F F
0.1261796461387341 0.5004578046783088 0.6230943770684068 F F F
0.9995887452009096 0.6234610935309626 0.6227389297439463 F F F
0.2514642733279348 0.5000738991873782 0.4995631874681232 F F F
0.3763447754757542 0.6241526779552493 0.4998829199805990 F F F
0.3762643929407398 0.5001990330905354 0.6242233810051186 F F F
0.2522079512349434 0.6232163792820491 0.6229709811103100 F F F
0.4999985436387769 0.5001123269672121 0.5000098758326725 F F F
0.6244752278127297 0.6243096214319575 0.4999399154402084 F F F
0.6244747974535568 0.5001898780266357 0.6239437917807972 F F F
0.5004244672919137 0.6241733034032033 0.6244190147140407 F F F
0.7490104374360389 0.5001910168734940 0.4996167215426075 F F F
0.8739085239371409 0.6240294856558222 0.4999492407006011 F F F
0.8736945605503051 0.5003423535816116 0.6230554895172185 F F F
0.7488005520756340 0.6237459532336794 0.6237017957237938 F F F
0.9996701859162980 0.7474068129103435 0.4989070745759013 F F F
0.1264407948305812 0.8727249986237510 0.4996906079590030 F F F
0.1265476074632858 0.7455756108007630 0.6211140856107870 F F F
0.9978641539748343 0.8709339747518622 0.6183079781239815 F F F
0.2521590276647306 0.7478578797825800 0.4995175066641737 F F F
0.3768758932439208 0.8736842320922460 0.4992455791391358 F F F
0.3774461247795758 0.7487567146888471 0.6234526730139568 F F F
0.2544551485550858 0.8735479851622544 0.6203198161420752 F F F
0.5005047990666669 0.7484798706637986 0.5000344167416700 F F F
0.6245610988989201 0.8737205213562157 0.4998840671570223 F F F
0.6242477555159406 0.7486911484976754 0.6236050470640704 F F F
0.5004697671599687 0.8738798456351560 0.6230691537049735 F F F
0.7485182479390258 0.7486265739652830 0.5001915068635383 F F F
0.8728220577139442 0.8728481012883784 0.4989585454964259 F F F
0.8729899449345985 0.7479018714265492 0.6226509309673220 F F F
0.7485061709770253 0.8734405253457775 0.6233370757010096 F F F
0.2517799961742100 0.5008339633565643 0.7479556786410410 F F F
0.9988890578608192 0.6213957072390511 0.8733096869439946 F F F
0.1263489602347376 0.5018188496745865 0.8734265774329867 F F F
0.1262983117925686 0.6229786091615480 0.7467536756091488 F F F
0.2570811389496729 0.9984355177788627 0.7448582514089360 F F F
0.3795483850943994 0.1262008120634234 0.7462425062438480 F F F
0.3825911690659275 0.9975370582899451 0.8716819771289011 F F F
0.9997918483334036 0.5007991668045795 0.7471271671626186 F F F
0.5015618782076903 0.9999833821839839 0.7472660112909820 F F F
0.6227151887306195 0.1273800657284615 0.7465611757171492 F F F
0.6219432459725864 0.0018113741873349 0.8731408676980399 F F F
0.5010982363687706 0.1269791437233724 0.8731708621751390 F F F
0.7474142303294067 0.0013158375999899 0.7437064944503005 F F F
0.8718067477103869 0.1294912483145166 0.7404959981113742 F F F
0.7476038273090657 0.3776012577030556 0.8733944081821704 F F F
0.8734087910913292 0.3786216738895642 0.7468304305256817 F F F
0.9973164326598771 0.2554762375753991 0.7442803819777409 F F F
0.1259869411690548 0.3787596580218028 0.7459184207514843 F F F
0.7474083369368845 0.2545095772070329 0.7454274950193217 F F F
0.9974843897201948 0.3816277384164060 0.8717998029263132 F F F
0.2546020032177772 0.2544934913141352 0.7451131626673405 F F F
0.3768869785210097 0.3772540218786544 0.7482439407641510 F F F
0.3791087601130197 0.2537922705870408 0.8734936308219667 F F F
0.2536338422201616 0.3797112373070307 0.8736920276378130 F F F
0.5007815948229405 0.2523708496886325 0.7477928275811343 F F F
0.6239780487809594 0.3770459659572032 0.7484636383734865 F F F
0.6220795949395110 0.2538901617403989 0.8736966353510233 F F F
0.5003539872641704 0.3771847629644717 0.8738388562223495 F F F
0.1267811351852333 0.2565328971010721 0.8740181189517796 F F F
0.7492826838295176 0.1308644801054474 0.8725127493371183 F F F
0.1248693886669856 0.1201150143999286 0.0034707812669905 F F F
0.8729561953040205 0.0015242817810776 0.8765322691683399 F F F
0.2570558144055803 0.1261223597981509 0.8737429510791203 F F F
0.9916620425415357 0.1290994039923646 0.8751054355233587 F F F
0.1254004129016623 0.9929533326567690 0.8763250468405644 F F F
0.1266053995207395 0.1259475983963154 0.7437921536378200 F F F
0.9950257746219604 0.9980293100961185 0.7413699237171035 F F F
0.7463777902281761 0.8727934411089854 0.8705790109238936 F F F
0.9902615177158473 0.1107180648013470 0.1203113675200718 F F F
0.2581120778049753 0.9937914028107330 0.9995487777755917 F F F
0.1231249878934129 0.1235546246688033 0.2532260372366281 F F F
0.8801795453902215 0.7525388613740680 0.1321754849702113 F F F
0.8655835094463534 0.8700991384205384 0.0032057257499965 F F F
0.2530225991617298 0.8736195958852304 0.1303812674820409 F F F
0.1158375846996749 0.7570943074647457 0.1269611759571404 F F F
0.2568530186433340 0.1245072815500017 0.1275945122008912 F F F
0.8696920464695359 0.2507313291253938 0.1286887776058664 F F F
0.1241197149164355 0.2558023600805206 0.1264374010909025 F F F
0.9930986055075648 0.2569927304977271 0.9993842615938391 F F F
0.1285836396379775 0.8723050708270588 0.7426832278052075 F F F
0.1284687069138457 0.7468281637029465 0.8742716058775453 F F F
0.9953927526663404 0.8707412585092129 0.8780295786849222 F F F
0.7464160312803836 0.0051839451806984 0.0080464101544500 F F F
0.8659588263491292 0.1319744151888312 0.0008300725433582 F F F
0.2582624563672413 0.8714646496438695 0.8703398962679824 F F F
0.7456727380110670 0.1270627508237827 0.1310308796347181 F F F
0.1371674478293136 0.8664267447449459 0.9954433417185532 F F F
0.8680237771706452 0.9895065100468119 0.1360903085933763 F F F
0.8733645439456197 0.8718824629744980 0.2580208694070885 F F F
0.1337036142924607 0.9980471215616098 0.1360425872444955 F F F
0.8717726616686576 0.8710419851592647 0.7447048408071243 F F F
0.8711951241618914 0.2595114815203862 0.8698226265595727 F F F
0.1246704758715782 0.8734637949080352 0.2565654114282165 F F F
