#comment
1.0
16.184 0.0 0.0 
0.0 16.184 0.0 
0.0 0.0 16.184 
Al Mg Zn 
225 20 10 
selective
Direct
0.0003249370347947 0.0007428824138513 0.5009365821289435 F F F
0.8731959419328572 0.8740115284204586 0.7423480439034981 F F F
0.7463165785626298 0.7475269954528295 0.7456041694547466 F F F
0.4995025445830146 0.8750078503246264 0.8732361338312388 F F F
0.6223519304692942 0.7484496007241812 0.8730885955615020 F F F
0.3768568114278507 0.1276652110563062 0.9997779635772641 F F F
0.3784029640771427 0.0010946899823213 0.1276975198095716 F F F
0.2538122658810626 0.1306053283006705 0.1301601082098451 F F F
0.4979227150326732 0.0011393618287108 0.9994506521845178 F F F
0.6226722119113978 0.1266744485999913 0.9982250334401496 F F F
0.6191048613672699 0.0019085305033125 0.1258002560252130 F F F
0.4996636923704810 0.1269877651210771 0.1255852720829957 F F F
0.6224101631161116 0.8751724140566158 0.7477133182878807 F F F
0.4993766041055143 0.7489498331883342 0.7482758806601775 F F F
0.3767115071029787 0.7489103125894395 0.8732479420098361 F F F
0.3760361006571558 0.8743493434222368 0.7475684397558772 F F F
0.9956975888660637 0.2635740317960716 0.0019612204545196 F F F
0.1263604714431753 0.3758944671342605 0.0012268474974633 F F F
0.2519919340944626 0.7469387618019033 0.7463738229144509 F F F
0.9988815585528373 0.3786382995685886 0.1277658225090385 F F F
0.2557452999964558 0.2556708025671378 0.0010731397732882 F F F
0.3770064084921897 0.3767972007684339 0.9995645805735054 F F F
0.3770461698497412 0.2523338964422340 0.1267077766753333 F F F
0.2515755803156305 0.3765700459753034 0.1263205195840834 F F F
0.4994805036314096 0.2513351235858129 0.9993486843009850 F F F
0.6231625703941023 0.3756165967301694 0.9997043079216289 F F F
0.6223642892852989 0.2520198460020500 0.1257183620439254 F F F
0.4994865097571680 0.3756911319854648 0.1262041327392610 F F F
0.7473104250369093 0.2531983325685497 0.9995384789420320 F F F
0.8723286073826594 0.3795156653782356 0.0011192023374785 F F F
0.1265201499658327 0.8738306502152567 0.7399285708827467 F F F
0.7484432444226736 0.3755812803347152 0.1264975160947930 F F F
0.0012721000670981 0.4987362381485332 0.0000928741160556 F F F
0.1278516471798677 0.6219879196683681 0.0004647888075319 F F F
0.1261675893351072 0.4989840366848590 0.1257513111640904 F F F
0.0014600037755405 0.6190747637309241 0.1273224789347209 F F F
0.2517378664201995 0.4992196706850672 0.9996992505888780 F F F
0.3775236371453238 0.6220024716160114 0.9997670126838429 F F F
0.3761160068566733 0.4994104226296220 0.1261543868314767 F F F
0.2522238504625606 0.6219116585622909 0.1265090303859961 F F F
0.5001377795506372 0.4992548237107395 0.9996495871717374 F F F
0.6220659384428636 0.6226788743610095 0.9995856375476176 F F F
0.6233745504529766 0.4986265452930476 0.1260856236368503 F F F
0.4998736141144587 0.6233535367500067 0.1262799382283139 F F F
0.7465573281633604 0.4985888366245775 0.0002216259169535 F F F
0.8727185931321836 0.6165724885727821 0.9993398401173773 F F F
0.8738469152867195 0.4996965676651092 0.1269172565441079 F F F
0.7457552443007008 0.6203889455540178 0.1266369318855067 F F F
0.9999881820154356 0.7357570746926375 0.9994452103663830 F F F
0.0007389530269326 0.7425288449981108 0.7402746079173717 F F F
0.7458887675812336 0.6205303826319776 0.8730346441228070 F F F
0.8739970259913857 0.4989388462818616 0.8732111359509144 F F F
0.2581185713678382 0.7429978835734027 0.0012142293583575 F F F
0.3771500110991828 0.8738332573127832 0.0001110926683664 F F F
0.3781055725187446 0.7477924813022684 0.1267652735040721 F F F
0.2574289030948803 0.8723059043496842 0.1294484493052683 F F F
0.4989664308594524 0.7486294639205645 0.9997619879496648 F F F
0.6191212156870494 0.8758805846955298 0.9990944294785572 F F F
0.6219626980106507 0.7481019697482826 0.1259640272134250 F F F
0.4996294191113919 0.8744018360512281 0.1260505965687533 F F F
0.7434360449142819 0.7448799153145946 0.9993379397905742 F F F
0.8734349477426351 0.6206105539947777 0.7458549642499236 F F F
0.7478247517514064 0.4991830316695630 0.7478147326551995 F F F
0.4993052082826217 0.6241919122182160 0.8736101278935747 F F F
0.0020393531946305 0.0045289761313928 0.2624203174203733 F F F
0.6226235283210463 0.4993221549578470 0.8735429835914232 F F F
0.1281045264054873 0.0018474653707505 0.3787542056816874 F F F
0.0009402752174558 0.1283374643068952 0.3795230245449599 F F F
0.2534040931316765 0.0021074332001580 0.2522135218654949 F F F
0.3770698527497917 0.1264900647092505 0.2521437508084758 F F F
0.3764936975078504 0.0005749579104711 0.3766032263376098 F F F
0.2515704277464539 0.1266347905669014 0.3763380580866171 F F F
0.4997108594480773 0.0005189041063858 0.2519335998565937 F F F
0.6224846601263129 0.1268652351409781 0.2523161113493976 F F F
0.6228692206913219 0.0006519312371711 0.3775359650091351 F F F
0.4998532978409997 0.1263381641488491 0.3763824494595210 F F F
0.7468752499962826 0.0024768419950537 0.2566985326641643 F F F
0.8752157879815283 0.1302188416299760 0.2569812506203353 F F F
0.8735965312234054 0.0022827987323616 0.3806841397706112 F F F
0.7482487403343481 0.1271988738266325 0.3778610642037385 F F F
0.0000165160657190 0.2539672623606732 0.2535391227062232 F F F
0.1257872559007172 0.3772510913913263 0.2523192555257824 F F F
0.1260679779720947 0.2513444421888783 0.3763812422329748 F F F
0.0001077252138212 0.3760977185137916 0.3764571372981643 F F F
0.2513530630777970 0.2523723539302137 0.2529198589733659 F F F
0.3756234351305138 0.3754688059915783 0.2518039377387534 F F F
0.3757855789581895 0.2510430346268831 0.3760878454456903 F F F
0.2510786784510519 0.3755893399349978 0.3759281153284733 F F F
0.4993691008970721 0.2514459627641618 0.2515574691434552 F F F
0.6234957123339665 0.3755753042676918 0.2516177376393413 F F F
0.6236058556202253 0.2513007466913762 0.3762186185550253 F F F
0.4996850045130768 0.3751276394240649 0.3756175468395220 F F F
0.7483431038466435 0.2527315315518401 0.2531639930818096 F F F
0.8740727815754606 0.3755914047496162 0.2514880788501116 F F F
0.8740091863106667 0.2525257596513344 0.3775355452591073 F F F
0.7485791438451402 0.3754001840898651 0.3757610828965299 F F F
0.0000349697197060 0.4989488995706338 0.2523730070542158 F F F
0.1267673108729782 0.6216899265664210 0.2522717317543764 F F F
0.1263248184208461 0.4992740448117895 0.3767028547779346 F F F
0.0000239327535826 0.6215133079901206 0.3778458382859877 F F F
0.2513109700942405 0.4992701171449730 0.2515003790168947 F F F
0.3763724704415947 0.6233939087078912 0.2514927064783883 F F F
0.3759813326172501 0.4994241748950036 0.3753906152684662 F F F
0.2516626353389259 0.6228164632086993 0.3761722895546807 F F F
0.4995486640033075 0.4992355745026950 0.2512432885952289 F F F
0.6230004571466025 0.6229324804471623 0.2514869392443149 F F F
0.6236553612781992 0.4993568042581983 0.3757287438246441 F F F
0.4998299181727456 0.6236477322272519 0.3756099850041218 F F F
0.7481749905757542 0.4983074005741836 0.2516683602757557 F F F
0.8730120821522892 0.6208417373204610 0.2534752694029389 F F F
0.8734861487293718 0.4985084921426112 0.3760245005106287 F F F
0.7480680532056756 0.6226974430814504 0.3764993821437725 F F F
0.0002120744686286 0.7416121379654584 0.2566689245190326 F F F
0.6229643669109783 0.6234929243346489 0.7484972485832314 F F F
0.1270358249951126 0.7463764153570821 0.3786488222602688 F F F
0.0012389221927921 0.8731390756434518 0.3817441153102699 F F F
0.2540276084919936 0.7462488310975756 0.2530145164039805 F F F
0.3775456611164051 0.8745427035740747 0.2528694059281441 F F F
0.3768963003488280 0.7483479645052138 0.3762666638792554 F F F
0.2536814957466228 0.8740581237692253 0.3778390721576974 F F F
0.4996261739378418 0.7486367030940125 0.2516436785684986 F F F
0.6222524851758662 0.8745264671048015 0.2527558608229659 F F F
0.6230178420961331 0.7482179206721776 0.3765414821300472 F F F
0.5002176467447973 0.8741397314791542 0.3764566787630325 F F F
0.7453210396893134 0.7461713680148083 0.2540437957193206 F F F
0.4996200434708321 0.4994801121501789 0.7486641990288413 F F F
0.8728604463155911 0.7456103926697965 0.3795081066901086 F F F
0.7461619070757441 0.8738066440896477 0.3790872022335499 F F F
0.2523208359696291 0.6229762418862327 0.8736599019731125 F F F
0.1264857850786276 0.1265250040689231 0.5000530485153244 F F F
0.1258511094856213 0.0005252358791924 0.6203881261335010 F F F
0.0006321186706456 0.1260727084782610 0.6224119970613100 F F F
0.2523583318652695 0.0004292216333803 0.5003689558148957 F F F
0.3757452836782429 0.1261666422695481 0.5001711981696986 F F F
0.3755711990111904 0.0004736036513016 0.6240063834254904 F F F
0.2512421482926246 0.1267358407779035 0.6233248312094737 F F F
0.4997257275335830 0.0003650573689861 0.5008979095962101 F F F
0.6237193256046950 0.1263097785690634 0.5004510561497922 F F F
0.6231473978627845 0.0005763398302149 0.6242270765738270 F F F
0.4994750052896809 0.1263207968611268 0.6244947984523083 F F F
0.7482495846535839 0.0002747348007024 0.5015266011444502 F F F
0.8742568248913463 0.1265648648986698 0.5010474664648942 F F F
0.8759000871113354 0.0001167883999275 0.6225136221544958 F F F
0.7482502480411004 0.1260641898406674 0.6228619059084877 F F F
0.0005668852431724 0.2519348274528562 0.5006951996832836 F F F
0.1265477704087782 0.3757424908118271 0.4998755831907521 F F F
0.1265103615157004 0.2509024692026088 0.6233245744547042 F F F
0.0005883205044608 0.3773442274283578 0.6224390358301675 F F F
0.2513790324838445 0.2512026156202066 0.4996911205560456 F F F
0.3757489824327594 0.3754669312200245 0.4999790326991601 F F F
0.3758419917115008 0.2511422923485290 0.6238675304296535 F F F
0.2510292375718957 0.3756168459327346 0.6240425228901229 F F F
0.4995806556635813 0.2509519013009910 0.4999982129483711 F F F
0.6237871070910672 0.3751926386632346 0.5001701235715750 F F F
0.6231674813864998 0.2509199447116998 0.6240619662900063 F F F
0.4994272530619042 0.3751731793291554 0.6244620211250442 F F F
0.7484513715903940 0.2516266301442445 0.5002459577919255 F F F
0.8734261156238123 0.3756664466907407 0.5001081802872316 F F F
0.8740996079427357 0.2521070079107450 0.6231972339798809 F F F
0.7481171371374432 0.3754266747176080 0.6238504849860040 F F F
0.9999693147592124 0.4987579353826653 0.4998071547720810 F F F
0.1263134643561340 0.6227645377926309 0.5001799222569687 F F F
0.1267669577182162 0.4994294027642566 0.6238515211433819 F F F
0.0005186328889385 0.6213457663472493 0.6218810268538599 F F F
0.2517521309090751 0.4996267356435676 0.4999814621826416 F F F
0.3759796992501617 0.6238252834540854 0.5000225000488144 F F F
0.3754657808075052 0.4995894974836776 0.6247709603657667 F F F
0.2511918131213121 0.6233846998287942 0.6240839990457052 F F F
0.4999446390085548 0.4998047318994631 0.5000033349461422 F F F
0.6236968072124920 0.6241529529506140 0.5003590256860877 F F F
0.6237777693961711 0.4995501301063966 0.6244529071153642 F F F
0.4995070971295266 0.6239508703438068 0.6246736495952400 F F F
0.7482415238314140 0.4995503555738889 0.5001918133751566 F F F
0.8735870567382842 0.6228455535921620 0.5004243862800026 F F F
0.8737335169373938 0.4992050925544178 0.6232308145031088 F F F
0.7481390148392977 0.6234069521895896 0.6236319740907466 F F F
0.0002014485752097 0.7476274735734727 0.5012878405527723 F F F
0.1269671232243917 0.8740517759918309 0.4998894238659505 F F F
0.1268868091697038 0.7480297407487406 0.6217817886369881 F F F
0.9995707530414247 0.8744488587555377 0.6217737838788515 F F F
0.2521838338540408 0.7481724391455600 0.5001055190511342 F F F
0.3767401936839704 0.8742305564489795 0.5004438396148806 F F F
0.3762493716338014 0.7483821474638873 0.6239064614454258 F F F
0.2525251805308005 0.8737635765752108 0.6221672473132389 F F F
0.4996786792878838 0.7485877339901722 0.5003979503778979 F F F
0.6231125893368916 0.8741050206690891 0.5011191908911771 F F F
0.6230680912995563 0.7489246880827416 0.6241570917489995 F F F
0.4992420031290437 0.8742978219732019 0.6246209252117652 F F F
0.7477564692145400 0.7481021603035528 0.5008355992748583 F F F
0.8734734636151532 0.8741061824673795 0.5001730376880454 F F F
0.8733068972131235 0.7475931404077452 0.6221308452847404 F F F
0.7478521253383934 0.8746388058421799 0.6232050938726824 F F F
0.0053770507702547 0.0013150602501415 0.7465832777156228 F F F
0.3761152439832173 0.4994555296597532 0.8735596814558072 F F F
0.3758367897775009 0.6236979264447147 0.7485500976908434 F F F
0.0051674510099858 0.1404749930591782 0.8615580518075354 F F F
0.2488365781794826 0.0003790801255208 0.7440196117448571 F F F
0.3757209820214024 0.1265086922505435 0.7480640056152859 F F F
0.3761060581526949 0.0009518370364570 0.8729772531856596 F F F
0.2514165401728946 0.4995343968619086 0.7490721237962480 F F F
0.4994488117766831 0.0010075733705075 0.7485106632719301 F F F
0.6239478563393839 0.1265112478330536 0.7489684164540641 F F F
0.6224237712129146 0.0031026738824462 0.8734795289351610 F F F
0.4992956031530141 0.1264265494991884 0.8738266004932441 F F F
0.7483750409294622 0.0022942906178847 0.7459237494022808 F F F
0.8742213460824118 0.1264338259678432 0.7435982246473308 F F F
0.8806050718556536 0.0034870878362750 0.8620672466821471 F F F
0.0023120839475027 0.6200941670709603 0.8723030544308520 F F F
0.0012734250545420 0.2559590334003494 0.7431657899717257 F F F
0.1267216156705920 0.3771723844303204 0.7481023939463253 F F F
0.1269336757080522 0.4994703337518964 0.8746843941129293 F F F
0.0012663808337914 0.3792162505163997 0.8728130722336288 F F F
0.2505783724949223 0.2527097917416213 0.7467342471543231 F F F
0.3756375623443799 0.3754483142628444 0.7485056058721991 F F F
0.3758223218508734 0.2512370613825420 0.8728858401876588 F F F
0.2516672104228048 0.3761783499341244 0.8736729698521341 F F F
0.4997310103536283 0.2507593236064720 0.7486279767631403 F F F
0.6230792042492596 0.3753989296462585 0.7485267167505363 F F F
0.6242361170071798 0.2506791158653201 0.8733113541840070 F F F
0.4996328965837557 0.3748348438192606 0.8733776864724905 F F F
0.7469535405469218 0.2513003960668643 0.7463709913611425 F F F
0.8736024652538288 0.3774908958689375 0.7462840241281637 F F F
0.1269125145148333 0.6221594598251005 0.7477797067202712 F F F
0.7467137935385204 0.3777994823435988 0.8733229043670958 F F F
0.0007098586912746 0.4992998173084576 0.7475011526236854 F F F
0.8720055418299927 0.2531623557790937 0.8716649851844479 F F F
0.8715982024625936 0.7431170284310078 0.1247141763237724 F F F
0.8717124691897132 0.7427555124725020 0.8724951082948583 F F F
0.2414837333571427 0.1246657871695518 0.8710367743867231 F F F
0.0647215917252246 0.0019190229176015 0.9328796688110201 T T T
0.1204507545627685 0.1467236553749082 0.0080729330873244 F F F
0.7480259964795580 0.8778396438745509 0.8742005765015205 F F F
0.8741240558383278 0.8730216297975774 0.2578843396955370 F F F
0.1281067360212725 0.8722679300801053 0.2537329018366571 F F F
0.1171894406251538 0.0080213860646569 0.1272605232943703 F F F
0.7464923547016670 0.8785310675412565 0.1231418019848311 F F F
0.7494450269176008 0.1263771260751012 0.1252829443538897 F F F
0.8831746401109719 0.8839749160036618 0.9953250002814665 F F F
0.0019082260912679 0.8665418640475472 0.1291376243404496 F F F
0.2491221853152296 0.0020532223303993 0.0040670820506824 F F F
0.1283713127186354 0.8563938320544282 0.0072418873838687 F F F
0.8880436043293859 0.1205690269014799 0.9956999479713751 F F F
0.2444319119812950 0.8761978149918286 0.8713844171019567 F F F
0.0043607919340179 0.8601935537896721 0.8635752922182612 F F F
0.8842044549925997 0.0051105141430736 0.1311104456157833 F F F
0.1261586712510528 0.2588276161544638 0.1331210847358653 F F F
0.1294843503965428 0.7411104430763207 0.8712083707370746 F F F
0.1269017724451799 0.2590588498032638 0.8717030542542070 F F F
0.7469724135020345 0.0044273706120377 0.9978748309045453 F F F
0.1289580754895419 0.7403053734656094 0.1312379556126397 F F F
0.9982849253089323 0.1384162820312887 0.1338288659522539 F F F
0.1263613900926600 0.1295764066939003 0.2543804878314089 F F F
0.1251004225899984 0.1247010654812254 0.7427124762186414 F F F
0.7490778475236134 0.1253130276908844 0.8737274703195747 F F F
0.8727666736018226 0.2539236916460495 0.1261333574355386 F F F
