#comment
1.0
16.184 0.0 0.0 
0.0 16.184 0.0 
0.0 0.0 16.184 
Al Mg 
241 14 
selective
Direct
0.0005665311791484 0.0004717229059650 0.5001339470031327 F F F
0.1186997631824608 0.1279935282522605 0.9953500609096031 F F F
0.7465645481969374 0.7460859822013126 0.7467667763503804 F F F
0.5002547644992936 0.8742225150910393 0.8733261606261008 F F F
0.2538793256540560 0.9980654168709748 0.9960783980455032 F F F
0.3786674332390960 0.1266628797517772 0.9997843475293724 F F F
0.3789435774269329 0.0006558469358602 0.1262620366139535 F F F
0.6220809025791917 0.7473020114665517 0.8740951788961768 F F F
0.4999163825821214 0.0008205102553531 0.9999658246915090 F F F
0.6234615280630361 0.1268949281207646 0.0010924522200200 F F F
0.6222996612240107 0.0020755282656813 0.1263370005139706 F F F
0.5001785773624055 0.1267613103244606 0.1262795961412057 F F F
0.7504968594960649 0.0026658531145086 0.0029573426757018 F F F
0.9333628795672410 0.0613386268714799 0.9960376054669334 T T T
0.8738661823343611 0.9974668587486655 0.1342784668298766 F F F
0.7515806274512609 0.1270974333291956 0.1217114898995580 F F F
0.9964328911775293 0.2497350024449289 0.9978880069002308 F F F
0.1245118432976626 0.3762803543412258 0.9994084409478152 F F F
0.1262617279278425 0.2556008784554072 0.1254644240413234 F F F
0.0002118713056383 0.3758439412232180 0.1251881347088240 F F F
0.2505380197515042 0.2539680491106503 0.9995766962358476 F F F
0.3760336676457841 0.3760181228529405 0.9999426852410011 F F F
0.3764923540557174 0.2520071264635375 0.1259176572375993 F F F
0.2512341165137889 0.3763523417634947 0.1259706009721680 F F F
0.5004936618475286 0.2516364323992695 0.0000604481291121 F F F
0.6244781315328612 0.3752674085661151 0.9999920307928448 F F F
0.6242534333668353 0.2512530216777513 0.1258058052363751 F F F
0.5002465458775905 0.3752865326438719 0.1257257498085690 F F F
0.7503071007514628 0.2534228716534656 0.0008891790213269 F F F
0.8748708015159664 0.3771010511141215 0.9996218699072064 F F F
0.8725908439070295 0.2532960074767052 0.1230594114070080 F F F
0.7484371643806791 0.3766268499998284 0.1259767652009820 F F F
0.0006169599034997 0.4985411369159422 0.9995773818679448 F F F
0.1268681637985654 0.6216364200343354 0.9986219137032430 F F F
0.1260546147410125 0.4993184461150150 0.1256065145969827 F F F
0.0007068126339602 0.6196942437861142 0.1264874573798877 F F F
0.2507852185899737 0.4989121876874230 0.9996391469824090 F F F
0.3762770649188789 0.6230304934988822 0.9993768739024435 F F F
0.3757887408923714 0.4994744247744384 0.1258587489932510 F F F
0.2521955106893938 0.6230113565736874 0.1257843073772618 F F F
0.4997848971270701 0.4992108827304527 0.9998272285738307 F F F
0.6226909208158573 0.6222281984258817 0.9998701057030326 F F F
0.6238855547451789 0.4991518371067460 0.1256804840982668 F F F
0.4996660293918611 0.6233009658581202 0.1260980595899956 F F F
0.7486047354730121 0.4986544405913506 0.9997969465924719 F F F
0.8743722894167560 0.6190633547686050 0.0003199869153131 F F F
0.8740678712816371 0.4989374105975468 0.1263222391497411 F F F
0.7474341141505713 0.6218674798116031 0.1266604039713466 F F F
0.0028875056901338 0.7464493845527984 0.9991423860362085 F F F
0.1294503853568243 0.8716160347610454 0.9956490993406228 F F F
0.6224006546115814 0.8745716028516780 0.7472952107762647 F F F
0.9981275730339554 0.8737632585591437 0.1262425781865090 F F F
0.2530658652858200 0.7471913734952416 0.9975676422421670 F F F
0.3786043497669817 0.8737511853546309 0.9980565999354739 F F F
0.3770205577635006 0.7475028006666027 0.1256249594579799 F F F
0.4993198394214939 0.7486634981559740 0.7485629630035932 F F F
0.4994023150182922 0.7480910957472805 0.9997607202537726 F F F
0.6197238928945330 0.8749986033999984 0.0004801324082442 F F F
0.6219835927112560 0.7472707833468223 0.1264775408436823 F F F
0.4998123902244704 0.8745238168368339 0.1263715008579654 F F F
0.7448990181025190 0.7448455670963245 0.0006261550065503 F F F
0.8766325363102653 0.8817480670429735 0.0021671843890245 F F F
0.2524434436425578 0.8735925592457399 0.8716920462074924 F F F
0.3760262997395249 0.7487738752929970 0.8734136022687474 F F F
0.9999527923572250 0.9978348947696667 0.2557756975251569 F F F
0.1262546179530184 0.1266828771365479 0.2560379437089309 F F F
0.1259109854355574 0.0001730903006542 0.3781701477921361 F F F
0.0012274665455634 0.1262561336976508 0.3779220134575827 F F F
0.2510143635344479 0.0006320805085283 0.2545963549451324 F F F
0.3762112269983751 0.1262914599303994 0.2518084835212801 F F F
0.3758487152582090 0.0005178414068672 0.3766530608975673 F F F
0.2511460537498117 0.1262515343168514 0.3769636948787460 F F F
0.5003247621594593 0.0010373501157992 0.2517969632666678 F F F
0.6254463630044469 0.1265060372988781 0.2500292182400301 F F F
0.6229202417931866 0.0007254085351569 0.3766716255233220 F F F
0.5000676553404839 0.1261079338008517 0.3755285570400431 F F F
0.7458641570006641 0.0003079615951083 0.2538172519645723 F F F
0.3759226052117538 0.8742809540351831 0.7482035328606320 F F F
0.8740092340542275 0.9989186681264951 0.3785219989762934 F F F
0.7470910568481288 0.1262578279307019 0.3778157952228475 F F F
0.0014955827882364 0.2558887761708852 0.2545270498282136 F F F
0.1262913407838907 0.3767881003279663 0.2514727082171866 F F F
0.1261721473900043 0.2517356532862887 0.3769784930938667 F F F
0.0004249050460731 0.3765703563972616 0.3767255804271722 F F F
0.2509470164606667 0.2520870510947295 0.2521054834057164 F F F
0.3754770241633595 0.3756427581881902 0.2511548661392734 F F F
0.3754596428716933 0.2507986178386518 0.3761232784048962 F F F
0.2504252864214934 0.3755342912789447 0.3757755967854948 F F F
0.5001762032636913 0.2508713189191378 0.2511051221619092 F F F
0.6234999965684594 0.3759037671422400 0.2510411605302156 F F F
0.6235623620790806 0.2509277563639191 0.3759015615502349 F F F
0.4997000741583290 0.3752568808459594 0.3756787638093271 F F F
0.7467787163094656 0.2532565079064253 0.2517078741599054 F F F
0.8744289161727794 0.3750375650165274 0.2505128208455590 F F F
0.8741561950628739 0.2532835956584942 0.3778041346109067 F F F
0.7489183335352497 0.3759424988875280 0.3759293383381074 F F F
0.0000582208064449 0.4982790565380842 0.2513280676896196 F F F
0.1255712552678190 0.6222733685128016 0.2528410351770642 F F F
0.1258169685798452 0.4996511090569153 0.3763544399198696 F F F
0.0004044852344956 0.6234389515159268 0.3769136643503492 F F F
0.2509461214105338 0.4996735670387392 0.2513042401040734 F F F
0.3758497858224193 0.6236908192815406 0.2516994337264201 F F F
0.3751436298023477 0.4996453226312982 0.3757294197716827 F F F
0.2504935734980664 0.6238339677805932 0.3765463770499806 F F F
0.4997916125284459 0.4996010818917081 0.2510642799529709 F F F
0.6235896308082725 0.6234708887378423 0.2516603957892504 F F F
0.6242581307037519 0.4997280894618985 0.3759274027702170 F F F
0.4997191398275977 0.6242163591505794 0.3759889276846635 F F F
0.7490090578490742 0.4991259284669174 0.2515959607993477 F F F
0.8746380530483164 0.6223273557391101 0.2529147685790707 F F F
0.8745780886934936 0.4991421389274402 0.3758805991025608 F F F
0.7490044642457648 0.6237099358450587 0.3766290794318990 F F F
0.9998462881457908 0.7484955412173380 0.2544386028407929 F F F
0.1251174615151108 0.8742827777044317 0.2559501072916403 F F F
0.1257889725737079 0.7484337292629049 0.3767579712329624 F F F
0.0000718191470426 0.8735764997413826 0.3784709696833125 F F F
0.2524876506068552 0.7473347321841904 0.2540152228498427 F F F
0.3775531340814484 0.8745905523985178 0.2532279017615536 F F F
0.3758173855184961 0.7488452249006960 0.3766428798949095 F F F
0.2513074073380157 0.8740581795174455 0.3767746238718405 F F F
0.4995078111579941 0.7484727147288956 0.2517445524634270 F F F
0.6219326564118771 0.8742636777237605 0.2529925813812227 F F F
0.6236906181598327 0.7488777912999046 0.3763671611586035 F F F
0.4993691394743299 0.8744041058436310 0.3766162127190230 F F F
0.7478937367696373 0.7471914668506641 0.2538104311264086 F F F
0.8742744869981718 0.8731390497421054 0.2559509749710439 F F F
0.8745706349946600 0.7482217417229063 0.3773991122385611 F F F
0.7483777669997682 0.8740658365002957 0.3769704781567855 F F F
0.2514853943671278 0.7484782106712101 0.7482239779464712 F F F
0.1259851206835690 0.1261455582837695 0.5006242303529865 F F F
0.1267936530415255 0.0006047087952785 0.6230013109073056 F F F
0.0005786607624837 0.1269937541885767 0.6227553221510347 F F F
0.2507680560853634 0.0002931274613252 0.5002338589555999 F F F
0.3758195964206090 0.1259833689205000 0.5002701919564611 F F F
0.3758378150283511 0.0003689993609899 0.6239393394735581 F F F
0.2515221754832311 0.1261516197375138 0.6242519718636603 F F F
0.4993720862295538 0.0005343818270461 0.5001253062375188 F F F
0.6238794563022567 0.1262527401633518 0.5005109705699445 F F F
0.6227468308873445 0.0011069932668055 0.6230109941313956 F F F
0.5001075209900870 0.1265534193824861 0.6245527836522874 F F F
0.7484798151735620 0.0003255575228286 0.5002441958955332 F F F
0.8743038714462178 0.1264911420605811 0.4993973402016349 F F F
0.8746146369722330 0.0025685729494181 0.6215369823801432 F F F
0.7487562645956432 0.1271433147241285 0.6236922796192395 F F F
0.0005296419389372 0.2512580625207363 0.5003211546316690 F F F
0.1255905852479092 0.3756491058303570 0.5003161740286263 F F F
0.1258162078921990 0.2515548885467962 0.6238639596420769 F F F
0.0000672357800367 0.3759020429138557 0.6241841470902171 F F F
0.2507780770312249 0.2509389865561770 0.5003679228659641 F F F
0.3751810666756547 0.3753653353060377 0.5000737570492658 F F F
0.3757828844220290 0.2510188309364409 0.6242349768818629 F F F
0.2505218674881141 0.3757054211886306 0.6242961392673800 F F F
0.4998670125403842 0.2507203221307585 0.5001569749619860 F F F
0.6244068610923750 0.3752380673010497 0.5000817329376971 F F F
0.6243234091103881 0.2510238150763193 0.6247738549612775 F F F
0.4999509351836222 0.3753504538162112 0.6244486367262420 F F F
0.7486474045331181 0.2515241347977767 0.5005696374981338 F F F
0.8746245384437006 0.3758830553398897 0.5003156857157330 F F F
0.8746590143386955 0.2518904138183836 0.6235931737866147 F F F
0.7494698150833219 0.3755503826367706 0.6247599386321402 F F F
0.0002916337565135 0.5001164365191832 0.5004165863421317 F F F
0.1258580666504027 0.6241453290993486 0.5004558655653965 F F F
0.1256867493673089 0.4997505069915295 0.6244224018161130 F F F
0.0007943108682889 0.6233103962546446 0.6239626449964164 F F F
0.2504932055303146 0.4996350621500886 0.5002279103799984 F F F
0.3754576493377459 0.6242752043090680 0.5002518171049294 F F F
0.3755470785142461 0.4997948973914639 0.6245636496641030 F F F
0.2508261971469720 0.6239390035103385 0.6242353808448162 F F F
0.4998579830524824 0.4999618811283641 0.5000300228138571 F F F
0.6240800755474419 0.6243869032510994 0.5001977695881190 F F F
0.6244251465366409 0.4994277420484119 0.6247021627187497 F F F
0.4998701106548441 0.6242276747118783 0.6246600379030480 F F F
0.7492462809640137 0.4994601750374425 0.5001170283486708 F F F
0.8746349966721746 0.6231318649758320 0.4998066732250113 F F F
0.8744664966923476 0.4993828811517200 0.6244862379524002 F F F
0.7487939463583797 0.6232371505536184 0.6236848082891889 F F F
0.0007723182498122 0.7486329866973894 0.5000168858364503 F F F
0.1265093426785626 0.8741107546313034 0.4999370138781392 F F F
0.1264771487359822 0.7488453723668699 0.6239561251575966 F F F
0.0028062556771351 0.8747085110302099 0.6219260768111958 F F F
0.2508952616490477 0.7488540126755809 0.5001762086721653 F F F
0.3753124287566466 0.8744869935876659 0.5000777065214987 F F F
0.3753946187808971 0.7489592652774519 0.6242302450622420 F F F
0.2511008231977439 0.8743532279687940 0.6242664447816343 F F F
0.4997281783429609 0.7492606622402285 0.5001094053530327 F F F
0.6235203413483605 0.8745384641135754 0.4996367270859584 F F F
0.6234399976909374 0.7488090587082037 0.6238459697478599 F F F
0.4994874117507547 0.8744123868897625 0.6238384343171361 F F F
0.7487841146178478 0.7485539414928946 0.4998038708817320 F F F
0.8744507074543075 0.8742760261473153 0.5011775941321455 F F F
0.8748261495416602 0.7460358096720674 0.6219497374027985 F F F
0.7467502565720898 0.8742939270420268 0.6220631377006440 F F F
0.0030283569516787 0.0024308405235878 0.7447496185349354 F F F
0.1266474761376664 0.1270892848056049 0.7457301918920994 F F F
0.1266788853991510 0.0015525222512617 0.8739290958463254 F F F
0.0020994171837736 0.1288675086478125 0.8646694204923012 F F F
0.2508954465575013 0.9995212758008604 0.7479326281640089 F F F
0.3768103003536194 0.1258842044941852 0.7479853753214306 F F F
0.3779877576937083 0.9991606106229677 0.8727292293725224 F F F
0.1272792676805959 0.7473582319361121 0.8725901478273907 F F F
0.4999578671118961 0.0004963572113247 0.7482646291446049 F F F
0.6242499548186030 0.1268195308031041 0.7492274572745320 F F F
0.6215426313735632 0.0022272417907302 0.8746548676129823 F F F
0.4998922292302800 0.1264029869587646 0.8738614721738389 F F F
0.7457267773939136 0.0022130377919195 0.7446633524926222 F F F
0.8753249059020501 0.1287628812172769 0.7451223426350072 F F F
0.8731688265905997 0.0003814621719734 0.8614852318657694 F F F
0.1270672855402425 0.8743867967372164 0.7474560706370802 F F F
0.0007512526476746 0.2532577998020333 0.7468480125207025 F F F
0.1258459179943672 0.3763083158797473 0.7483355878993414 F F F
0.1245054461238459 0.2538072668259762 0.8732019120461634 F F F
0.0003850506988590 0.3764157694509137 0.8740098755164648 F F F
0.2510110665742000 0.2523679518470210 0.7476584020599919 F F F
0.3756216582454189 0.3757966087361092 0.7487474607150427 F F F
0.3770505554817227 0.2526122802616953 0.8737437362890194 F F F
0.2507655485758029 0.3757426533594822 0.8737858140878225 F F F
0.5000958364007215 0.2512137688773325 0.7488598711896646 F F F
0.6240641983827484 0.3758098453577144 0.7490086211248511 F F F
0.6239214617264753 0.2516585220670079 0.8742558951610970 F F F
0.5000865504997094 0.3757354691066301 0.8742042141482051 F F F
0.7492005967104151 0.2520781337465012 0.7484503427656369 F F F
0.8748673372610668 0.3752605267211412 0.7495612470187707 F F F
0.8763066231367763 0.2526248961512435 0.8746290561284857 F F F
0.7494476582567638 0.3758840853315878 0.8738542732335733 F F F
0.0003583418239742 0.4990643418219949 0.7488515764416700 F F F
0.1266406973078283 0.6232592279238633 0.7483019839768897 F F F
0.1263412656175449 0.4991654797108913 0.8737433400337730 F F F
0.0024852841063222 0.6215670628776464 0.8733286108274699 F F F
0.2510876993834718 0.4997174636504948 0.7487491072895410 F F F
0.3752694056701835 0.6242563303378342 0.7490165186187304 F F F
0.3752568902921720 0.4995781692401935 0.8737838079920673 F F F
0.2512479318122600 0.6237032994032746 0.8733966559871197 F F F
0.4998191495630003 0.4995217428842927 0.7491672150318252 F F F
0.6233752152639576 0.6232687923624156 0.7488767539906916 F F F
0.6241364936738414 0.4990907374632754 0.8741466634439221 F F F
0.4993841534430296 0.6236507657047072 0.8736798741261730 F F F
0.7493198866537075 0.4991061828352559 0.7489156394861520 F F F
0.8749429594346420 0.6225661807534095 0.7475902697554622 F F F
0.8747102027899887 0.4998303521243654 0.8734686223716784 F F F
0.7473955006366335 0.6217425162028439 0.8736164711413164 F F F
0.0033787343122347 0.7474604028187147 0.7475082332275270 F F F
0.7543153487661718 0.1264848213296274 0.8788596587972447 F F F
0.2513007918056587 0.1269234168923578 0.8743502014394640 F F F
0.0017923723030968 0.8807942952558657 0.8782880871338183 F F F
0.7461022784945259 0.8756549557213458 0.8760202945075048 F F F
0.8721678238371001 0.1277508266892469 0.2542791347364949 F F F
0.7463708834608350 0.8740030932908395 0.1260965869285172 F F F
0.8755493072806506 0.7467975426860635 0.1250634361791633 F F F
0.2535796742493169 0.8751950363712002 0.1262667747309998 F F F
0.1249548454080719 0.7479750886226563 0.1267103153161835 F F F
0.2489966090554561 0.1253987953415178 0.1237212419122623 F F F
0.0011193198086177 0.1311262224183762 0.1315239524651899 F F F
0.1192478979582800 0.9978651034556130 0.1199747547856437 F F F
0.8749525409672080 0.8730233367124334 0.7431066362975147 F F F
0.8750256860488349 0.7462328158287972 0.8764638654858060 F F F
