#comment
1.0
16.184 0.0 0.0 
0.0 16.184 0.0 
0.0 0.0 16.184 
Al Mg Zn 
240 3 12 
selective
Direct
0.0003195615593596 0.9998354704705855 0.9988840663012398 F F F
0.1249373956806935 0.1263409396906713 0.0013643821159298 F F F
0.7500077956240893 0.8747995957253356 0.8734599967318520 F F F
0.8747938751337400 0.7499269291344912 0.8734736362730021 F F F
0.2480642634090897 0.0002929317386448 0.9979052676245791 F F F
0.3752862067016365 0.1265816351410961 0.9973029167386460 F F F
0.8747230522003761 0.8747477314399718 0.7487836739359073 F F F
0.7501675621361584 0.7500225183942357 0.7482937069983614 F F F
0.5011390179347739 0.9998396642835466 0.9974126443705845 F F F
0.6253708443101172 0.1251259832862996 0.9978972340013988 F F F
0.6249716074867683 0.9997195775623263 0.1232514179148464 F F F
0.5015251032273195 0.1265031257413779 0.1235422812898006 F F F
0.7500361548355255 0.9998566805591237 0.9981898460469195 F F F
0.8748902403009666 0.1250558181056018 0.9982132997563180 F F F
0.8746135422787419 0.9995355776109103 0.1227932347044229 F F F
0.7494776647078009 0.1249358318198382 0.1229376640812402 F F F
0.0002174317778122 0.2505628354816827 0.0010807481187052 F F F
0.1246709401569846 0.3747344502888837 0.0014952798541695 F F F
0.5003676373366176 0.8746616456457154 0.8733181434775863 F F F
0.6251904069749836 0.7499429166014858 0.8733991567307712 F F F
0.2497164112094087 0.2504972757317471 0.0011472453559859 F F F
0.3741039626826623 0.3747865505123367 0.0002471753523459 F F F
0.6250797501554564 0.8750300722890522 0.7484648077562227 F F F
0.5002876923827039 0.7498335777982026 0.7484784019622376 F F F
0.5002411080530179 0.2508907722546689 0.9983083445611711 F F F
0.6253899915785122 0.3756967513468308 0.9984376113806281 F F F
0.6258226847701598 0.2508369163323648 0.1234480733948733 F F F
0.5002497599761144 0.3755876071437343 0.1230966363745413 F F F
0.7497171275351876 0.2505395594782564 0.9978652603585285 F F F
0.8759466102964008 0.3754498339781842 0.9992560385535585 F F F
0.8732687272888152 0.2509791303308181 0.1223339583844223 F F F
0.7508145778413022 0.3758142618920004 0.1244141370348472 F F F
0.9998618112472195 0.4995170388118672 0.9998003458739666 F F F
0.1248256391200005 0.6235262071075161 0.9999185631172541 F F F
0.1243318396034188 0.4981288620117987 0.1266911594137222 F F F
0.9993268957404893 0.6261236152078038 0.1226177254566598 F F F
0.2497376908888076 0.4994709649878981 0.9996096649854164 F F F
0.3753225693114836 0.6250344405446436 0.9981780356129375 F F F
0.3746785928246450 0.5002252752276029 0.1231968784302404 F F F
0.2501099670051946 0.6250388448595281 0.1236194255107204 F F F
0.5000459185903670 0.5002584063523339 0.9981301668017832 F F F
0.6250022567816764 0.6249160457249544 0.9980702565038666 F F F
0.6252034552416349 0.5002676565548678 0.1232948396086832 F F F
0.5000070688439057 0.6248902536232034 0.1230875035658007 F F F
0.7499908696987155 0.5001531087541413 0.9981516198215789 F F F
0.8745258682090876 0.6249626107918557 0.9979739197516881 F F F
0.8749948264039600 0.4998049198019365 0.1231244332695273 F F F
0.7499124530838249 0.6248491088741883 0.1229109829140667 F F F
0.9996781629469267 0.7499303786922746 0.9978826006733581 F F F
0.1244507453772463 0.8749578154046980 0.9987974291134298 F F F
0.1243977800951015 0.7497441874277821 0.1233804655851188 F F F
0.9998715277671022 0.8746053941277458 0.1231576375715848 F F F
0.2496161810729197 0.7491482881168468 0.9986318132332638 F F F
0.3749240066559416 0.8734877211274836 0.9975946867542217 F F F
0.3750386306975469 0.7493641417735015 0.1238263367689146 F F F
0.2486882262969057 0.8734890041425601 0.1238541087148892 F F F
0.5003096843551093 0.7495949819439570 0.9981105286940120 F F F
0.6255200367304470 0.8747451005135155 0.9980654706346480 F F F
0.6254721923306410 0.7496735379108657 0.1229672606312552 F F F
0.5011894748923796 0.8735654328088819 0.1234455535838782 F F F
0.7500783981738606 0.7498375475529172 0.9981440479774106 F F F
0.8748340053145389 0.8748049462305550 0.9979674799825069 F F F
0.8746252235631214 0.7500892391274916 0.1228922609821712 F F F
0.7498510350089428 0.8749045285135326 0.1230876515322998 F F F
0.0006139752084292 0.9987612307719460 0.2465780713181423 F F F
0.1269257126237485 0.1249818059065910 0.2445648895831328 F F F
0.2500460848649549 0.8743714587163633 0.8737544530300709 F F F
0.3753399288956341 0.7495964459113299 0.8734854648826060 F F F
0.2483128071527505 0.9996596590419309 0.2513426348937639 F F F
0.3718348236625184 0.1268609621354863 0.2484931848798934 F F F
0.3753702027265672 0.8746347392847790 0.7488453183407037 F F F
0.2501223102866254 0.7498137776694043 0.7490440394189811 F F F
0.5009419471565378 0.9999991496610816 0.2504668586678090 F F F
0.6257735998275601 0.1255919221968358 0.2491174933613311 F F F
0.6256141561912913 0.9999831368227028 0.3748121448887578 F F F
0.5002523763072887 0.1244818665998983 0.3743837491924169 F F F
0.7491347810355493 0.9994374360264205 0.2488026828448348 F F F
0.8727484852904869 0.1236383486871528 0.2473360439741026 F F F
0.8735945832799076 0.9985729996775782 0.3741491871250947 F F F
0.7510565190200736 0.1262793171999748 0.3741573619234174 F F F
0.9976785218614118 0.2429216535111199 0.2411010417700731 F F F
0.0694957663981462 0.3718684433350982 0.3100536883337030 T T T
0.9994829340719511 0.8749051224111156 0.8735999240236105 F F F
0.1246686360695214 0.7494851503958140 0.8740602376059794 F F F
0.2434407595520740 0.2552210589027269 0.2451782078385246 F F F
0.3729151741401758 0.3763846577273038 0.2460042023799368 F F F
0.1246640577156116 0.8748063974487615 0.7497388545551382 F F F
0.9995316705166731 0.7494561398856605 0.7491462782984165 F F F
0.5001509497084755 0.2507841307371431 0.2478360120026489 F F F
0.6251614181104990 0.3756194999547083 0.2487370504198359 F F F
0.6248316348567131 0.2505476256155703 0.3739440973714960 F F F
0.5003044002593927 0.3764776968519927 0.3737820723190612 F F F
0.7503847676381652 0.2511193469050009 0.2488652396490427 F F F
0.8807353005724482 0.3757040806881167 0.2508331768052416 F F F
0.8774400563111490 0.2535449022675260 0.3734887198364844 F F F
0.7508460518761848 0.3756010228572351 0.3736917097672530 F F F
0.9983755534479528 0.5065665255869060 0.2480150426698429 F F F
0.1253384061279898 0.6267018247501907 0.2485283311407650 F F F
0.1265564951465408 0.5085612853849655 0.3768318808540300 F F F
0.9990550732189339 0.6270654801270157 0.3749002901376160 F F F
0.2464944544146258 0.4978131364378579 0.2487607712135235 F F F
0.3740127509224417 0.6237082718965873 0.2487705286049269 F F F
0.3738790432952609 0.4991704172460840 0.3737969806898587 F F F
0.2516306648692577 0.6266607090683873 0.3745334101832368 F F F
0.4999593706314372 0.5005956340319359 0.2484854081655295 F F F
0.6254367225477347 0.6247768835515325 0.2486705395205397 F F F
0.6253297112520275 0.5004582599848499 0.3740035866967771 F F F
0.4999026825582802 0.6247375942498069 0.3741658075021531 F F F
0.7509047368072558 0.4997686506793468 0.2488694122924062 F F F
0.8735182657700773 0.6264271540792484 0.2485511319158207 F F F
0.8775367132161306 0.4983398859601558 0.3741157765608962 F F F
0.7510648432322118 0.6242843822787285 0.3741582950173150 F F F
0.9995070314492978 0.7503932172984642 0.2487363738770765 F F F
0.1247216753165782 0.8745232838550832 0.2491861105045594 F F F
0.1248942700477342 0.7501860140749105 0.3745553932768579 F F F
0.9999128251074827 0.8753730853670429 0.3743306360814597 F F F
0.2500268982527066 0.7498301379327290 0.2492522605088811 F F F
0.3749131265463753 0.8738026068279270 0.2507195131944754 F F F
0.3760239778317884 0.7497213207083450 0.3746617795322186 F F F
0.2499822421149963 0.8743675986168985 0.3750951735922349 F F F
0.5003535646371606 0.7491096902815612 0.2487562509085089 F F F
0.6250379568766906 0.8745912241150312 0.2489847272466985 F F F
0.6250569625113473 0.7494703236172888 0.3742744148184512 F F F
0.5007207615761561 0.8747251908851680 0.3748610207871750 F F F
0.7495016257225603 0.7501230617507108 0.2487491308076704 F F F
0.8747869017413862 0.8745851049038930 0.2483906024785208 F F F
0.8746919869152733 0.7503524789168869 0.3744261186043780 F F F
0.7497564832067665 0.8745251525609038 0.3744686348407320 F F F
0.0001309975159613 0.9984996874060200 0.5010754247802924 F F F
0.1267921438613233 0.1236519868132981 0.5024637314887176 F F F
0.1249133771510474 0.9991823945771339 0.6257391761905496 F F F
0.9997977359634892 0.1262682528668674 0.6234591869082809 F F F
0.2501659939312162 0.9994705333335809 0.4990346318267249 F F F
0.3743957839455576 0.1237066594730052 0.5003699350825452 F F F
0.3751257637021981 0.9996691761558671 0.6244220469165410 F F F
0.2503060383354689 0.1246753201035516 0.6258123392444001 F F F
0.5000609959141699 0.9994967740580424 0.4994924835494527 F F F
0.6253768614857816 0.1251197420601338 0.4992385026554932 F F F
0.6251140250918495 0.9997947574240005 0.6238348349023195 F F F
0.5002723851149331 0.1248355883629602 0.6244231705502538 F F F
0.7498540043831401 0.9999391963734260 0.4994407733675664 F F F
0.8740116687342314 0.1249823325691719 0.5003554432850129 F F F
0.8749393514122673 0.9998770774429291 0.6245613711313803 F F F
0.7497837705913506 0.1250804301654484 0.6243680401981756 F F F
0.0006069797391311 0.2535266249500150 0.4975657916117500 F F F
0.1228121191346466 0.3760392258536224 0.4941311091320920 F F F
0.1241357647751491 0.2512419732681430 0.6251344838990216 F F F
0.0001076205131312 0.3756925101816416 0.6234443745441706 F F F
0.2490629707486943 0.2510104304299954 0.5032754159738131 F F F
0.3742625149322527 0.3768048694355514 0.5005905112641369 F F F
0.3754221211108046 0.2503927306619619 0.6250641143068146 F F F
0.2485598538486798 0.3759632701342323 0.6246413554999783 F F F
0.5004395424946327 0.2502579801011726 0.4999954307125567 F F F
0.6252471980212130 0.3755598448751064 0.4986830518808830 F F F
0.6255098094017761 0.2506805004988810 0.6238877601623894 F F F
0.5003505651120339 0.3757897683210047 0.6242712387924094 F F F
0.7501561115159670 0.2506760961106776 0.4988093192610489 F F F
0.8771294861775875 0.3757299274037620 0.4971492163788140 F F F
0.8749523710456041 0.2508168234567011 0.6241637898169572 F F F
0.7509653157544914 0.3755367579396135 0.6230016901353974 F F F
0.9999390955939172 0.4984094798333743 0.4967046923111807 F F F
0.1249581106466434 0.6268946018998053 0.5012095513618555 F F F
0.1243649569463197 0.4999122742191797 0.6237352409545873 F F F
0.9995989228063173 0.6240486112946754 0.6233314680678322 F F F
0.2501488339699999 0.5000853185849923 0.4998610341325233 F F F
0.3755861803105319 0.6248143042267794 0.4997132248420869 F F F
0.3753172202982753 0.5004374890686446 0.6247443854077352 F F F
0.2503231166383938 0.6249469153463426 0.6246124828790821 F F F
0.5003104184672162 0.5007081640339601 0.4992784546001251 F F F
0.6252513838980913 0.6249826720649676 0.4988704276493318 F F F
0.6253109342362112 0.4999764445865367 0.6234653759172571 F F F
0.5002803549352981 0.6249961892000446 0.6241576436217643 F F F
0.7503757843567713 0.5001568088424486 0.4988392575864558 F F F
0.8748374273538334 0.6250390855982851 0.4993865185157945 F F F
0.8753758548257837 0.5000211384983739 0.6236215950906938 F F F
0.7500065425784361 0.6248376675935533 0.6237511847341589 F F F
0.9996532352165133 0.7505144978334549 0.4997342564130282 F F F
0.1251333480918112 0.8748027581584658 0.4995760591147656 F F F
0.1244711370588147 0.7502510013310062 0.6250311320716213 F F F
0.9995715827704684 0.8745168418457658 0.6247515355048797 F F F
0.2503172111797695 0.7500833769024162 0.4998538382953330 F F F
0.3754000685361419 0.8749894345553701 0.4993903960283883 F F F
0.3752202862636639 0.7497168380464442 0.6241142592929042 F F F
0.2502140420330240 0.8747995806432040 0.6244787389865407 F F F
0.5003501581113828 0.7498480542560562 0.4996115076759778 F F F
0.6252246602024047 0.8747506569567758 0.4994763993289883 F F F
0.6253935059525275 0.7499411485140925 0.6234554681248903 F F F
0.5000741653279663 0.8746965994553770 0.6240179568605171 F F F
0.7500745863681645 0.7495456748181100 0.4989707840928403 F F F
0.8746491904307029 0.8744776847380257 0.4998407972187593 F F F
0.8750959048179118 0.7494663378286148 0.6239942075851455 F F F
0.7502116555322624 0.8749569690036346 0.6237168661317307 F F F
0.9994970279844252 0.0000957321017727 0.7492138532059193 F F F
0.1245267877020733 0.1253568537349568 0.7496070711451057 F F F
0.1244236319495737 0.0001182389042611 0.8742191059871247 F F F
0.9999106562528787 0.1251859012356798 0.8747680153160611 F F F
0.2503134073961306 0.9996154844491116 0.7495912983269882 F F F
0.3754388285763857 0.1249100447027656 0.7495661594395114 F F F
0.3751942596212197 0.9995853969191792 0.8742545671034319 F F F
0.2496136391831948 0.1254550132452227 0.8741757177623133 F F F
0.5001220853659598 0.9996343049057446 0.7487858786678944 F F F
0.6252463991239829 0.1249304156592982 0.7485690231836455 F F F
0.6254035972052242 0.9995970598595723 0.8731640735113783 F F F
0.5003986092089902 0.1248866810322080 0.8733283541869433 F F F
0.7501976321743167 0.9997471569940766 0.7484361530156901 F F F
0.8750761654755433 0.1250833474767923 0.7490605811301628 F F F
0.8747318967747433 0.9995320104372089 0.8738454412429564 F F F
0.7499050660087089 0.1247614804811598 0.8733144386975932 F F F
0.9997365511888998 0.2504145883920031 0.7499681344227849 F F F
0.1245030831424801 0.3752938989976031 0.7500108601298811 F F F
0.1248801511254767 0.2503026691927148 0.8752822428129318 F F F
0.9999091010330867 0.3752129928960560 0.8749510791663250 F F F
0.2498598271303173 0.2503051332146044 0.7498345060431703 F F F
0.3748040908836297 0.3756272321478381 0.7491976643991518 F F F
0.3750965569090731 0.2508838115887371 0.8741594236746159 F F F
0.2497808779345598 0.3751608005857876 0.8749079193604629 F F F
0.5002979926153639 0.2504988675548248 0.7491790681793427 F F F
0.6253694714450262 0.3755770823250832 0.7485990491526747 F F F
0.6250369862082354 0.2504667148995480 0.8733559822905055 F F F
0.5000488948925794 0.3758419211902223 0.8738434173096474 F F F
0.7501963692920672 0.2506302857650550 0.7488411021843423 F F F
0.8752685196606944 0.3756692016488795 0.7490453638810830 F F F
0.8750615209050405 0.2503714075345008 0.8741461235467050 F F F
0.7503066706590373 0.3756492695987276 0.8736250004106216 F F F
0.9998181673452514 0.5001381650370751 0.7493311926153435 F F F
0.1246126653457120 0.6246351814587043 0.7491343696097803 F F F
0.1247782659192719 0.4999598643605290 0.8748476562227295 F F F
0.9997669299057896 0.6246672650243258 0.8742071945328950 F F F
0.2498142730903407 0.5001777491950458 0.7494335413110292 F F F
0.3754353556286477 0.6249764859862883 0.7492104943058713 F F F
0.3751349298671434 0.5000392242035900 0.8742920097021819 F F F
0.2500356988872037 0.6248490008897439 0.8741797046479167 F F F
0.5002772517850632 0.5004092026878495 0.7489134058051921 F F F
0.6251860328009629 0.6250100206364346 0.7482848091528067 F F F
0.6251900685347662 0.5003100355643263 0.8733569665925757 F F F
0.5000654075071357 0.6249676098941906 0.8736195823448205 F F F
0.7501871327004458 0.5000602989987676 0.7482459494002514 F F F
0.8750028236169669 0.6248546404182451 0.7486976041512505 F F F
0.8749538914004861 0.5003700818796138 0.8738000409079837 F F F
0.7497338557037211 0.6250643862072915 0.8733114600648978 F F F
0.3743320408044611 0.0003854344392787 0.1238455861389637 F F F
0.3705627259012372 0.2515854815570090 0.3737887145964207 F F F
0.0020680759185573 0.1239091711930911 0.3738813506151621 F F F
0.2493992428007009 0.1224689667503008 0.3744605409908881 F F F
0.3755640876627213 0.9994636986893835 0.3747320825278775 F F F
0.1309075735185445 0.2419988180709868 0.3792509205391244 F F F
0.1257424974357472 0.9983354245031719 0.3747641955239474 F F F
0.2468831537903909 0.3763387804195002 0.1253450844621224 F F F
0.3750604501319375 0.2502367180227190 0.1233022342762985 F F F
0.0033444783668466 0.3755727099954700 0.1280876934306360 F F F
0.1252666826671406 0.2538806233332397 0.1252337622694340 F F F
0.2501472351188083 0.1249855770782913 0.1226339201913494 F F F
0.2443809369718427 0.3766235541915230 0.3708750515223710 F F F
0.9993961319470404 0.1228505883643087 0.1206530693564931 F F F
0.1251196749915715 0.9994878974005519 0.1234723030041285 F F F
