#comment
1.0
16.184 0.0 0.0 
0.0 16.184 0.0 
0.0 0.0 16.184 
Al Zn 
239 16 
selective
Direct
0.0000603258706570 0.0001673213323352 0.5000844038433857 F F F
0.1235443394795757 0.1182551280888786 0.0006700748647051 F F F
0.7505484046626761 0.7500368117605631 0.7502689790631808 F F F
0.0008343826525198 0.1216336582796150 0.1230335115774335 F F F
0.4998148190916621 0.8751399545921189 0.8752836262668690 F F F
0.3733654427115423 0.1237739471621241 0.0005755184496441 F F F
0.3730967053589116 0.9999297667642061 0.1246619128517501 F F F
0.6252629888738517 0.7499677064182995 0.8750526975473171 F F F
0.4995977271952972 0.9999622497869552 0.0000567131238206 F F F
0.6254304981404161 0.1245125588063134 0.9999491512509243 F F F
0.6251561432685914 0.9999333174563003 0.1248531603969291 F F F
0.5000619743858719 0.1249482605036149 0.1251148971775018 F F F
0.7518055295029369 0.9991251161220379 0.9999057896240994 F F F
0.8781868527876687 0.1220032752778792 0.9998412490807754 F F F
0.8784781545232320 0.9987917974758899 0.1229191758057912 F F F
0.7504255465837575 0.1244963744404251 0.1246339266481275 F F F
0.0004357510278021 0.2481494529275181 0.9996375580037439 F F F
0.1248231773190275 0.3749551795377867 0.0000427160785746 F F F
0.1253314254754658 0.2486029715133805 0.1244816392696539 F F F
0.0002523659145519 0.3749587912075839 0.1246142233257514 F F F
0.2488242345183856 0.2483008903683719 0.0004374846689262 F F F
0.3744770686427643 0.3748015625568018 0.0000559014720939 F F F
0.3748496257174341 0.2498089492598229 0.1250085436055432 F F F
0.2499060383016939 0.3750102538288103 0.1250908229326294 F F F
0.4998824896437560 0.2495033715528971 0.0000630991489206 F F F
0.6252642017511578 0.3748379855419653 0.0000173179905070 F F F
0.6251864328644291 0.2498036949559433 0.1249112648786877 F F F
0.5000483003702355 0.3749387539327131 0.1251261076920534 F F F
0.7515020835187024 0.2487417333451765 0.9995189870862732 F F F
0.8754624868821946 0.3748567614424722 0.9997903014197549 F F F
0.8753704647344724 0.2493248403579825 0.1247353043078921 F F F
0.7499410730293484 0.3748962345971164 0.1248610389989017 F F F
0.0001456159783054 0.5009895907388999 0.9999498472371703 F F F
0.1240767991582946 0.6276316407485241 0.9996335099421199 F F F
0.1248824183689896 0.5007478443711306 0.1247427447126222 F F F
0.9997166952345017 0.6268834692458872 0.1241955781088457 F F F
0.2495873385052164 0.5003999252656719 0.9999488195214179 F F F
0.3737074183258219 0.6261805321172764 0.9999246538156683 F F F
0.3748556581659572 0.5002298681861990 0.1250333196494223 F F F
0.2494419293771117 0.6255965686361005 0.1245127699946468 F F F
0.4998359276825926 0.5001461164540074 0.0000321249056216 F F F
0.6252972140373354 0.6252866090447252 0.0000880906973307 F F F
0.6249909314419622 0.5000262010655181 0.1251591081394965 F F F
0.4998214329040935 0.6250378826740545 0.1250326930992610 F F F
0.7502937260530753 0.5003653570598432 0.0000612363873795 F F F
0.8763007630920219 0.6269602204698024 0.9998162132258334 F F F
0.8749491302556129 0.5002291767435614 0.1249218583899259 F F F
0.7501601563839329 0.6251459622639056 0.1247105865741887 F F F
0.6253529926433878 0.8752753911386886 0.7504183675532788 F F F
0.0641303701364906 0.9347260793367744 0.0006003390274541 T T T
0.1241303009829171 0.7543233219420372 0.1227055307361320 F F F
0.4999017729614505 0.7499573983888568 0.7500707863889997 F F F
0.2466026626296626 0.7532317077427990 0.9997067497999685 F F F
0.3722302222921281 0.8758228278664054 0.0003369573119043 F F F
0.3741471298381822 0.7504279119786214 0.1246204907640431 F F F
0.2453062201477088 0.8758899216729422 0.8768660553022857 F F F
0.4997766952123342 0.7501997645456705 0.9999776443441842 F F F
0.6254005303417045 0.8751052579761626 0.0000142578761372 F F F
0.6251701433815705 0.7499453541881546 0.1249655562886373 F F F
0.4997132405704520 0.8750589214217802 0.1248040255168789 F F F
0.7519259897907135 0.7512089395233925 0.9999678067847949 F F F
0.8819135524279315 0.8759061927031629 0.9999565768095364 F F F
0.3742930032959488 0.7504861088522146 0.8753500329423003 F F F
0.7516688856822401 0.8745573450043801 0.1245258127599385 F F F
0.0000637414181886 0.9994649203617639 0.2503829944530882 F F F
0.1257880871214071 0.1254341154462543 0.2501603859794392 F F F
0.1251110380702843 0.0002167274944695 0.3752987922473681 F F F
0.0001687704441292 0.1250497954907364 0.3748980189981136 F F F
0.2505746048048438 0.0000822692929161 0.2498726808599772 F F F
0.3748170139193127 0.1251959838701001 0.2497330217941248 F F F
0.3754290669274583 0.0002047467892332 0.3749981790544894 F F F
0.2501762888607688 0.1251600385856710 0.3749126969458544 F F F
0.4998331287463008 0.0001520329111823 0.2498328451896309 F F F
0.6252265857993503 0.1249487453830823 0.2499404066058003 F F F
0.6252219101313764 0.0002972972691624 0.3748044252452957 F F F
0.5000254986078286 0.1253223773647271 0.3749582694333974 F F F
0.7514821835518571 0.9995239329486537 0.2486694141569109 F F F
0.8750576579846879 0.1248665807468576 0.2499289616152101 F F F
0.8749576785221931 0.9998973770667694 0.3749234721753310 F F F
0.7498421115456155 0.1249115537251011 0.3747302805688172 F F F
0.0003582730242529 0.2486329624980790 0.2488093465513858 F F F
0.1249966038595545 0.3748612552773588 0.2497422813180096 F F F
0.1250388091989557 0.2503977515676835 0.3749916154336954 F F F
0.9999260466148053 0.3750132142391923 0.3748046980221046 F F F
0.2500368031284806 0.2498511349427712 0.2498592691765185 F F F
0.3751093794669484 0.3750529232869465 0.2500638237195254 F F F
0.3750186784616298 0.2498871381482705 0.3747377001048011 F F F
0.2501275639747997 0.3749398394687365 0.3749494820603949 F F F
0.5000956156251946 0.2499752875781584 0.2500774755983025 F F F
0.6250893681261959 0.3748570997515957 0.2500150618575048 F F F
0.6251554608450628 0.2498298577827570 0.3748459025640412 F F F
0.4998786921543331 0.3750022363499945 0.3748603732800833 F F F
0.7498217565605673 0.2499290175888254 0.2499760579319062 F F F
0.8750320300241387 0.3749424795048956 0.2498612174136895 F F F
0.8749360464817185 0.2498842891092562 0.3747833527356465 F F F
0.7500073842701414 0.3749195081832068 0.3749403514788882 F F F
0.0000654272204463 0.5005458714399313 0.2495265725823568 F F F
0.1246815235884623 0.6266456623580544 0.2484707904595240 F F F
0.1252620259267153 0.5003121877346186 0.3746181352704457 F F F
0.0000125900971522 0.6246871267843743 0.3749427589156982 F F F
0.2498599749446771 0.5004793081597798 0.2499119547874701 F F F
0.3750185649433815 0.6248480451616637 0.2500603899546430 F F F
0.3748582443781311 0.5001476845498619 0.3748755168590618 F F F
0.2498593909024612 0.6250815555513355 0.3744657493851098 F F F
0.4999523847968166 0.5001291953010087 0.2500925704285989 F F F
0.6250814697258852 0.6248478209192216 0.2500245932716098 F F F
0.6250692151518188 0.5000982460458507 0.3748538021730045 F F F
0.5000047273724944 0.6248990501577346 0.3749038051450283 F F F
0.7497682944865022 0.5000685557030582 0.2500351081764490 F F F
0.8747685396320817 0.6249212492383748 0.2497671189944712 F F F
0.8747295970118386 0.5001232511706821 0.3750101735835026 F F F
0.7498833417388738 0.6249113957284433 0.3748464525615710 F F F
0.9991277621696597 0.7500660531926213 0.2502589898228587 F F F
0.1253162405262800 0.8755280199731706 0.2493634227307815 F F F
0.1247799530266409 0.7499811892086684 0.3744862085887499 F F F
0.9998321596388232 0.8749720857285621 0.3751914635564365 F F F
0.2497432487372034 0.7502868362774652 0.2494218492586568 F F F
0.3737665213861686 0.8751708919597211 0.2486983163159772 F F F
0.3749745654200634 0.7498563491917218 0.3747248851616868 F F F
0.2499821270533820 0.8750742701619112 0.3748235421349600 F F F
0.4999545020063522 0.7499158936092903 0.2499487145492968 F F F
0.6251329467817917 0.8750716030485269 0.2496880305873443 F F F
0.6251245573445677 0.7496352590665397 0.3749855423754356 F F F
0.4999522849423628 0.8749125556172452 0.3747616917613343 F F F
0.7504520971996677 0.7499560318226739 0.2496783499498612 F F F
0.3735948884215083 0.8750578701763218 0.7513152888343745 F F F
0.8748763305671203 0.7499251216556307 0.3749884903831955 F F F
0.7498052404802005 0.8750828995448219 0.3749933618361237 F F F
0.7520334575499332 0.8747869978713119 0.8753510065297400 F F F
0.1251807701827771 0.1251366616632444 0.5000733816707278 F F F
0.1248842097987764 0.9998669440896257 0.6248780363912642 F F F
0.9996800728633956 0.1250015399432540 0.6255267733252940 F F F
0.2501878652564143 0.0003041478041310 0.4999465105581057 F F F
0.3753263807144220 0.1253984265734812 0.4998854559220614 F F F
0.3752389638800345 0.0000298465758537 0.6249723218049908 F F F
0.2500591578425603 0.1251037707141300 0.6251073468717526 F F F
0.5003383613310147 0.0002717361274733 0.4999395263061150 F F F
0.6250030642190626 0.1254497926627885 0.5000999619155572 F F F
0.6254427015461530 0.0004706792418016 0.6251839043916015 F F F
0.5001223665737463 0.1252636525646773 0.6250105783598288 F F F
0.7497519084535981 0.0005327717044000 0.5001224283227697 F F F
0.8746956051245646 0.1252350657962569 0.4999685356271367 F F F
0.8750507213220853 0.9999700086509151 0.6253876150668416 F F F
0.7502034998165515 0.1249550459817033 0.6255412123467832 F F F
0.9998264985912225 0.2499585220903103 0.5000916384555807 F F F
0.1251586322037164 0.3752603046280725 0.4999450621304581 F F F
0.1246994689265106 0.2503199987504556 0.6250969706703053 F F F
0.9998740030493858 0.3748689951549893 0.6252951391878492 F F F
0.2501657626453647 0.2501892268514840 0.4999878244329975 F F F
0.3749789518785950 0.3749371271009163 0.5000011844069376 F F F
0.3748926551649522 0.2498951060042171 0.6251360343098120 F F F
0.2500908050844672 0.3749839264267674 0.6250063662247187 F F F
0.4999938256989859 0.2500959287850069 0.5000730306467587 F F F
0.6250734754025387 0.3749357843197177 0.5000861698828043 F F F
0.6252382006125525 0.2498192743830585 0.6251225279118540 F F F
0.5000452038589768 0.3749351129436635 0.6251225265378703 F F F
0.7498130286016498 0.2499466565791643 0.5000733928973788 F F F
0.8747182137884983 0.3750297698171894 0.5001177372867857 F F F
0.8748667290161178 0.2497084748179481 0.6251933501270116 F F F
0.7499749367271136 0.3748930288536128 0.6250347919921538 F F F
0.0000207687940954 0.4998764215724499 0.5000926134515186 F F F
0.1253394264958926 0.6249770895187137 0.5000230453692499 F F F
0.1252827152257467 0.5003444717784621 0.6252518399623602 F F F
0.0000399566511688 0.6248782581740877 0.6251058881078257 F F F
0.2504803446801493 0.5000834377308653 0.4999220737621881 F F F
0.3749793210332095 0.6248723986296632 0.4999857506430856 F F F
0.3749339254821457 0.5001035959149198 0.6250460949827180 F F F
0.2500294407832733 0.6249910318402231 0.6253468368712723 F F F
0.4998547161213398 0.5000380409374624 0.5000427955769491 F F F
0.6250734928196490 0.6247975341237357 0.5000608708594330 F F F
0.6249754884337609 0.5000911166433882 0.6251165468434059 F F F
0.4998832105410959 0.6249755138087384 0.6250611776283760 F F F
0.7498252964996414 0.5000863741818882 0.4999688830651771 F F F
0.8746326934115189 0.6246693523850397 0.5000410093627049 F F F
0.8747564743858360 0.5000707733573201 0.6249783901866797 F F F
0.7499860266999471 0.6249315903203246 0.6251641578934438 F F F
0.9999154932650660 0.7497637797306559 0.5000352637708019 F F F
0.1250569249125855 0.8748843085150592 0.4997786185129787 F F F
0.1248457288337732 0.7500429572192333 0.6253233902480299 F F F
0.0000333071963013 0.8750280089336240 0.6250471055011141 F F F
0.2501547615809769 0.7495380338853760 0.4999851043974595 F F F
0.3749712409355162 0.8748389930330491 0.5000685912670625 F F F
0.3747628986463274 0.7499037995620093 0.6254314388195206 F F F
0.2496696716128460 0.8749092237453037 0.6254707198652159 F F F
0.5000276952429114 0.7495868552809944 0.5000546116853500 F F F
0.6248514166068493 0.8750032851791076 0.5000041601782329 F F F
0.6251505238316882 0.7497554723658664 0.6250382411285829 F F F
0.4999241717989991 0.8749020317425918 0.6251918955413863 F F F
0.7497853986546362 0.7497181231148190 0.5001449040292828 F F F
0.8748703449216131 0.8749595589199743 0.5000866610293022 F F F
0.8751618084610786 0.7502022023282023 0.6253324351763152 F F F
0.7499336499014601 0.8752585465155850 0.6251856184901671 F F F
0.9998024490516323 0.9993874061974980 0.7497657680731510 F F F
0.1248726702461797 0.1256538921787188 0.7494843291059773 F F F
0.2490545465952145 0.7503652742315119 0.7505311985930366 F F F
0.0001362235166235 0.1216669746839886 0.8769562211882947 F F F
0.2498544610587354 0.9997005878428737 0.7495266120916936 F F F
0.3749540660896137 0.1251195777669924 0.7500086952287131 F F F
0.3738158868366100 0.9999382927187781 0.8756852783127013 F F F
0.2499868642328747 0.1244779817210345 0.8759217212165680 F F F
0.4999417469388008 0.0000545529089557 0.7502117615611877 F F F
0.6254743285959354 0.1249426046814954 0.7499852884304821 F F F
0.6256385141763122 0.0000779851832250 0.8752553401853613 F F F
0.5000135448499601 0.1249554425605476 0.8749569113242462 F F F
0.7521681317297417 0.9999937145624992 0.7513100954345588 F F F
0.0001260169146025 0.7504193692995397 0.7504530837295570 F F F
0.8789756539857140 0.9990127342093249 0.8771265810717396 F F F
0.7516414768874528 0.1247290127316934 0.8748223830649118 F F F
0.9988491447224812 0.2483233092764404 0.7516911887442123 F F F
0.1246798835878419 0.3745822859160210 0.7504330286991171 F F F
0.1248381446836449 0.2489920925676025 0.8757093272732827 F F F
0.9998142608852769 0.3748446750583900 0.8752163005411259 F F F
0.2499822254446534 0.2497908244519872 0.7501259013893562 F F F
0.3750576407129345 0.3750847255916758 0.7499210209499714 F F F
0.3749390151283895 0.2498107986170399 0.8752487093374060 F F F
0.2497627315397444 0.3748243031965945 0.8750555465416062 F F F
0.5002239649084068 0.2499801846381632 0.7498498826852826 F F F
0.6252856613517027 0.3747937514617585 0.7496946644389306 F F F
0.6254372158818463 0.2497772335995996 0.8749494848349231 F F F
0.5000943090731762 0.3749825559116469 0.8748758929791548 F F F
0.7505377293927680 0.2497811950559985 0.7500046390627474 F F F
0.8748782636334446 0.3750259512164112 0.7500950520657185 F F F
0.7502533058795688 0.6252412068134713 0.8753375488375834 F F F
0.7503179617892588 0.3746671047581737 0.8749909836220787 F F F
0.0000333817335329 0.5004259215012630 0.7503333219335742 F F F
0.1247576646476967 0.6260949896604896 0.7511476481490815 F F F
0.1248267123950697 0.5005615632585119 0.8751714425715810 F F F
0.0001068954255008 0.6271248211905569 0.8754045501077604 F F F
0.2499357354907028 0.5001586240089655 0.7499388331662454 F F F
0.3749840426293540 0.6248601015009845 0.7498562337308322 F F F
0.3748292368202334 0.5004386737707638 0.8749547612256197 F F F
0.2493479561733634 0.6257458122401416 0.8750790511189231 F F F
0.4999311548945545 0.5001420506830742 0.7497954382724645 F F F
0.6250579647661807 0.6247889124922175 0.7498430887394253 F F F
0.6250848227569112 0.4999755006043186 0.8748486713513753 F F F
0.4997822812364918 0.6249990466909641 0.8749433301105078 F F F
0.7498462980877845 0.5001192904245395 0.7498363177888508 F F F
0.8749918267874788 0.6250802476990410 0.7503152833196055 F F F
0.8750188163786161 0.5004900848323109 0.8750412090658780 F F F
0.8749104139863209 0.1251444075349006 0.7499322117656894 F F F
0.1244618899941180 0.8746148239976809 0.7502883763887980 F F F
0.1248193971268449 0.7540037096631993 0.8774815777841884 F F F
0.9970994722470412 0.8721953084128224 0.8680895845174557 F F F
0.1268393859749318 0.0024423718506941 0.8683958508238957 F F F
0.8739959824414829 0.8745726858505396 0.2507634300474171 F F F
0.8747981382522648 0.7495024209361907 0.1241691672063733 F F F
0.8751878306234361 0.2496654333741239 0.8748897620958613 F F F
0.9958183991434976 0.8720298913596973 0.1323159429782993 F F F
0.0044735973782011 0.7551693284051060 0.9994074603262110 F F F
0.2507092153025438 0.1250283219276710 0.1241528010324559 F F F
0.2448915932762023 0.9956543825438096 0.0006288978865392 F F F
0.1282650192993016 0.0028931450628189 0.1316340424051172 F F F
0.8744215973955476 0.8744026253844108 0.7496157062408619 F F F
0.8751886209823110 0.7496020086201570 0.8757344643717326 F F F
0.2460322584764157 0.8750256669995142 0.1219822881189652 F F F
