#comment
1.0
16.184 0.0 0.0 
0.0 16.184 0.0 
0.0 0.0 16.184 
Al Mg Zn 
215 30 10 
selective
Direct
0.0003983563241246 0.0006654499995255 0.4987429488296657 F F F
0.2543995624834893 0.7464479678157764 0.7459743992488012 F F F
0.3765709191121950 0.8736940400323364 0.7485444356947806 F F F
0.0005017458871299 0.7426140083254276 0.7444695727932099 F F F
0.7465962951100442 0.6222210898234876 0.8736568208681235 F F F
0.3791845307384749 0.1262142815621101 0.9979618552495056 F F F
0.3803140089738759 0.0005135440402990 0.1249633385491665 F F F
0.8729992397289658 0.4995382288107432 0.8735157427902560 F F F
0.4999409430977968 0.9992400177774942 0.9986825997845165 F F F
0.6196113511778649 0.1261506444059305 0.9997028491541311 F F F
0.6211141041277306 0.9996477962209550 0.1264330815381441 F F F
0.4995698817774299 0.1261609600216609 0.1259017852413292 F F F
0.8729045299292135 0.6223868882966600 0.7475385696258137 F F F
0.7471863145053664 0.5007796973716695 0.7480518325724015 F F F
0.4990067704240393 0.6244333567982111 0.8735475355845050 F F F
0.6227628299479837 0.5009237712269239 0.8740169241667992 F F F
0.6229388444888999 0.6240579095171443 0.7488065542911455 F F F
0.1280799412156785 0.3788514988497740 0.9997909001224812 F F F
0.4996736351784821 0.5001403974542394 0.7487664271547835 F F F
0.0003444621683919 0.3793176023286309 0.1290900791592766 F F F
0.2557115154770757 0.2561796354081323 0.9975333061099418 F F F
0.3775458890103752 0.3771104720584070 0.9995188123462831 F F F
0.3792770535225038 0.2534475019506297 0.1255971938205971 F F F
0.2526867841235017 0.3771128297116191 0.1258221842577167 F F F
0.4998995561995672 0.2521073343600901 0.9995629780069758 F F F
0.6220537734513132 0.3778724904243299 0.9999337693768483 F F F
0.6220531261908924 0.2529188735013125 0.1258120452569901 F F F
0.5005038268873365 0.3767671386532114 0.1257832763138035 F F F
0.7453911650987542 0.2599141052216198 0.0002812615084012 F F F
0.8719393065633774 0.3822305771248050 0.0021805608096198 F F F
0.7453114457230960 0.7464526608986749 0.7456722019053075 F F F
0.7472556445612170 0.3786458484413733 0.1270328029277580 F F F
0.0002267739385860 0.4989427009626083 0.0014794490419641 F F F
0.1275273129221107 0.6189494643590197 0.0012186133619400 F F F
0.1268590511429337 0.4993833790337069 0.1270458096151764 F F F
0.9995453979561505 0.6195348435701291 0.1281296470180295 F F F
0.2523258589412264 0.4993201991343079 0.0001394735462561 F F F
0.3772506276664325 0.6223579353443994 0.9999379378604536 F F F
0.3761933844103238 0.4997629986447741 0.1260281178847042 F F F
0.2525909077493110 0.6215348241109291 0.1265234390789015 F F F
0.4998085213036657 0.5004069701363770 0.9998776819066869 F F F
0.6222294100116391 0.6233292516385355 0.9997907646844442 F F F
0.6237783541852632 0.5004629961044810 0.1260325028662275 F F F
0.4994114720415818 0.6228863903516694 0.1260400170765586 F F F
0.7465449008390136 0.5008500226344913 0.0005252722758463 F F F
0.8710877447930480 0.6190726204380217 0.0007630345341575 F F F
0.8731957797309214 0.5006998488548277 0.1275776313532267 F F F
0.7475527026452654 0.6237644362244786 0.1261191259797265 F F F
0.2540777643289395 0.6206334372066300 0.8733399016708284 F F F
0.3768047551029222 0.4996913299183793 0.8739889011132532 F F F
0.1282738168565832 0.7414209689890218 0.1268175443560366 F F F
0.3765546071022891 0.6237820273389322 0.7484973358958273 F F F
0.2556118351088218 0.7435493319730613 0.9999369762578680 F F F
0.3773097738436922 0.8740406296261312 0.9971764089036588 F F F
0.3786348297166443 0.7465693113464313 0.1259807119010882 F F F
0.2522742426621058 0.4994109824509151 0.7481651017989782 F F F
0.4982577817610708 0.7477497743979561 0.9989449727772196 F F F
0.6183774637311966 0.8707542218243101 0.9985628931426160 F F F
0.6198749065521960 0.7453720704506595 0.1259352762573943 F F F
0.4988691637484083 0.8735941835159988 0.1257281779168758 F F F
0.7459517237553300 0.7461009668758283 0.9985516271373677 F F F
0.4984869844064725 0.8735595712830705 0.8729747887871288 F F F
0.6223263348247985 0.7477629251487580 0.8733304601749343 F F F
0.9986887958901041 0.6178663323334354 0.8725143381946926 F F F
0.1268919726627341 0.5005482357485096 0.8735092531874640 F F F
0.1269218182499091 0.6210174120154887 0.7465407130623094 F F F
0.1297543729148943 0.9999405617536002 0.3828504875064615 F F F
0.0001726918984932 0.1303570361427589 0.3829287531272011 F F F
0.2561541910176254 0.0003448336286426 0.2557441018513896 F F F
0.3782534409781492 0.1267765648428077 0.2526937751277294 F F F
0.3780118755686751 0.0001687855889340 0.3772208993709044 F F F
0.2549689576786536 0.1273186868488911 0.3793497940413907 F F F
0.5002163849000230 0.0003391315728987 0.2518686368184141 F F F
0.6240092208585173 0.1269963309499475 0.2503223222218364 F F F
0.6213559400588657 0.0002112924662857 0.3776373385846105 F F F
0.5006046339587237 0.1261733831996855 0.3754480655118200 F F F
0.7420098907665413 0.9998215384012170 0.2566524943324615 F F F
0.0000894758304069 0.4996838923984381 0.7475108544330181 F F F
0.8706325793611583 0.0000889863839534 0.3825529506213131 F F F
0.7450417374945679 0.1273511922018875 0.3792697467250382 F F F
0.0002525301889722 0.2610099115654351 0.2599929454168179 F F F
0.1272875020451106 0.3776455730975709 0.2523545636179312 F F F
0.1275143430713207 0.2551180201028135 0.3804118116325896 F F F
0.0001611219701813 0.3796139404377430 0.3793368546312044 F F F
0.2549456842365764 0.2555222603115242 0.2534873910030350 F F F
0.3770558387578299 0.3766701983686789 0.2509390814978954 F F F
0.3773690166664295 0.2516608833034456 0.3766168733252375 F F F
0.2521202769964362 0.3769236694547241 0.3766117612174389 F F F
0.5003973817577301 0.2517353352241343 0.2513384224983406 F F F
0.6232796064859855 0.3769948438146059 0.2509774382829222 F F F
0.6230466147857375 0.2516676447694349 0.3762805748365556 F F F
0.4999174377775417 0.3758052886994638 0.3761802181597033 F F F
0.7454873847818629 0.2553820119061350 0.2527701138250859 F F F
0.8727408109651759 0.3781575989531480 0.2525654215525356 F F F
0.8724256918671366 0.2555384843884316 0.3805943411413508 F F F
0.7478521168191297 0.3771416159853225 0.3764397424039317 F F F
0.9999275585476934 0.4997977668187167 0.2525876679366436 F F F
0.1270501268451574 0.6213879111465634 0.2524615835945931 F F F
0.1267195500085057 0.5000533845822200 0.3763237141527336 F F F
0.0006208666659103 0.6219521350280441 0.3775494342592873 F F F
0.2520983827446217 0.4994207433618533 0.2514600115837641 F F F
0.3764422769594332 0.6231309399488952 0.2514156041990087 F F F
0.3760868753285650 0.4998028551539032 0.3759051454746709 F F F
0.2518772132935679 0.6230722466477160 0.3765927279826710 F F F
0.4999281628634233 0.4998916778406477 0.2515723252613329 F F F
0.6230001536552221 0.6227724979266682 0.2513305257370611 F F F
0.6237555323212594 0.4998048283932600 0.3759281400299097 F F F
0.4997840411691022 0.6240546781742651 0.3761861553824392 F F F
0.7479874598291578 0.5006914472227044 0.2514675699047685 F F F
0.8735043710924238 0.6227289865887183 0.2528134470800317 F F F
0.8735532242612453 0.5001685940074705 0.3761577672300283 F F F
0.7477576413520979 0.6225481696657374 0.3771973260284514 F F F
0.0016024959958789 0.7417386901806137 0.2543493799460779 F F F
0.7452731150843379 0.3800127853042353 0.8730896693868407 F F F
0.1276164108939948 0.7454927031650700 0.3792432274713676 F F F
0.0011261231643374 0.8701506184367661 0.3837876814852914 F F F
0.2541143898558761 0.7450848243008660 0.2532080176128033 F F F
0.3786158949782252 0.8736337333219579 0.2530290047088250 F F F
0.3766696089143728 0.7484426092278625 0.3767446472426127 F F F
0.2543647047772221 0.8729537520065308 0.3783370437206370 F F F
0.4995807859365523 0.7477954189965910 0.2519700090737819 F F F
0.6208697589351203 0.8726582554517435 0.2531459331365291 F F F
0.6224597099777586 0.7480804204377056 0.3772087264308602 F F F
0.4995855095369466 0.8739788650780311 0.3767509494866010 F F F
0.7451096102405350 0.7435103818846359 0.2550536862742042 F F F
0.8726437205319514 0.3795511000357617 0.7465803401606299 F F F
0.8737501008664678 0.7438831617648912 0.3810015507167809 F F F
0.7448190846959103 0.8729037183813423 0.3792310011081830 F F F
0.6214988362575135 0.8730850878880748 0.7475031470442371 F F F
0.1276650641031875 0.1272119789963356 0.5008621399314596 F F F
0.1276905763414085 0.9998836904151964 0.6193938908489649 F F F
0.0010796730967093 0.1271305205600057 0.6191042175676974 F F F
0.2540754327646472 0.9999842083356688 0.5007948586771720 F F F
0.3777908378306688 0.1262052053164159 0.5002437925148508 F F F
0.3772560325159401 0.0000764745713248 0.6238042901152681 F F F
0.2544774864756387 0.1264723534462636 0.6214145345832475 F F F
0.4996463597213005 0.0001579045004168 0.5005904525096280 F F F
0.6225510824103283 0.1263465689306153 0.5002793754126502 F F F
0.6217083667110294 0.0000326480022048 0.6230859651177696 F F F
0.5000774234224767 0.1260177919091288 0.6248064714131727 F F F
0.7459575505969807 0.0000371101799769 0.5004763507442295 F F F
0.8728982851942780 0.1272970967702525 0.5007715001927019 F F F
0.8735946894467510 0.9995249993358054 0.6178758443998845 F F F
0.7456949095041734 0.1260142030004484 0.6210863704775715 F F F
0.9999368725380853 0.2540860873386029 0.5010610073135744 F F F
0.1267630887556622 0.3772548473415844 0.5006771232956995 F F F
0.1272886697130597 0.2539941840442523 0.6214120784304524 F F F
0.0001281690301859 0.3791119963814483 0.6219279279270060 F F F
0.2528067478633302 0.2521085349851315 0.5005123260882687 F F F
0.3761613748458802 0.3759726570559186 0.5002384712935436 F F F
0.3770199738924541 0.2514239920215725 0.6238427903450928 F F F
0.2517748670221147 0.3763011496351580 0.6241811740613796 F F F
0.4999322773721376 0.2510837501798495 0.5000566680554457 F F F
0.6237332241592731 0.3757156569708218 0.5000818173084576 F F F
0.6230101515657762 0.2516140006374388 0.6235588824777851 F F F
0.4999057155209086 0.3757349803171516 0.6242686017969401 F F F
0.7473809118685838 0.2521144014046373 0.5003472389379835 F F F
0.8731516247491586 0.3775560671239662 0.5006355725969277 F F F
0.8727770413059485 0.2541979935431570 0.6211812384096593 F F F
0.7479581958371391 0.3768722879622700 0.6236218864897737 F F F
0.0001522352580418 0.5008536947033209 0.5002354780121542 F F F
0.1268411772430791 0.6231259510527145 0.5004942962032224 F F F
0.1265598030260758 0.4997380336435204 0.6239671140267051 F F F
0.0002716055482020 0.6218397117641565 0.6228196475728691 F F F
0.2516069735337141 0.4998992444536992 0.5003651254395157 F F F
0.3762003917846647 0.6240531676472585 0.5002042290860048 F F F
0.3759708540460958 0.4998673498089219 0.6242661180615803 F F F
0.2515446253226519 0.6233586479099869 0.6234900946313399 F F F
0.4998519423215194 0.5000009866227175 0.5001382403029416 F F F
0.6235792809912892 0.6240562145945933 0.5002441482124708 F F F
0.6236523808409353 0.5000601427662985 0.6240630749482550 F F F
0.4998403336994206 0.6243750367020146 0.6243208979564228 F F F
0.7480132558670890 0.4998280252835203 0.5003333749167563 F F F
0.8735309022709976 0.6221200708686662 0.5001832591781255 F F F
0.8734827376069012 0.5005660429600268 0.6241332357942834 F F F
0.7481847324515868 0.6233833518488733 0.6233146790932244 F F F
0.0008528018217022 0.7456432088443954 0.5007327420242615 F F F
0.1283118956928284 0.8730526264775039 0.5006372079981637 F F F
0.1271168268496264 0.7466921579032336 0.6225299827718834 F F F
0.0018969849646576 0.8733304030902074 0.6165908599660936 F F F
0.2523014009796039 0.7481333915562254 0.5005316382988912 F F F
0.3765864609555523 0.8738222493311136 0.5005672375887572 F F F
0.3766962236977960 0.7487415744511990 0.6237021092638786 F F F
0.2532719314278003 0.8737217491705639 0.6225104233867004 F F F
0.4996637868800102 0.7490881753829853 0.5002447897464163 F F F
0.6224217020701562 0.8740501571215300 0.5005774970014766 F F F
0.6227512943475525 0.7485411927332594 0.6235999217519179 F F F
0.4993770612200963 0.8738591596016049 0.6243022761077373 F F F
0.7473988274645649 0.7477186764424969 0.5002350812747003 F F F
0.8729170567442731 0.8726205543259600 0.5005387196935656 F F F
0.8736816219409573 0.7447089197700514 0.6202766208142205 F F F
0.7458788909117782 0.8733777553924731 0.6209037261583420 F F F
0.4991978189105433 0.7485773367392082 0.7488830488820329 F F F
0.7452962003012079 0.2540403010343286 0.7460700888977080 F F F
0.4999212899610020 0.3760448845949621 0.8737675198932058 F F F
0.6220384018899773 0.2525373528207275 0.8734739168236273 F F F
0.2560123528734508 0.9997304735260522 0.7471085031019676 F F F
0.3770368650817150 0.1262396119799541 0.7483405851381492 F F F
0.3769383461730382 0.9994034064957105 0.8740814986736303 F F F
0.2563967943005537 0.1274768114401657 0.8732176112572667 F F F
0.4989184490196764 0.9997110335718387 0.7486659179058698 F F F
0.6231073565141817 0.1259705363198734 0.7485759304296508 F F F
0.6202414579268327 0.9980233558953675 0.8723786585413854 F F F
0.4997571159960821 0.1256153091608432 0.8730386197310243 F F F
0.7432660567954781 0.9976058824947570 0.7446000359106547 F F F
0.6228807594172516 0.3768005500642243 0.7486632080759663 F F F
0.4999000469511297 0.2513843425354146 0.7486318881570929 F F F
0.2526234709994084 0.3776934280294927 0.8734290880693411 F F F
0.0006289566084115 0.2598638112272441 0.7415750852747574 F F F
0.1272238214040021 0.3776618243227322 0.7480990256473905 F F F
0.3759327786652585 0.7483533482912418 0.8732865329255188 F F F
0.0016167875796399 0.3803859725563139 0.8723291882604546 F F F
0.2543845160867939 0.2538853671618698 0.7476711182185999 F F F
0.3767423489494408 0.3760996575417563 0.7490876383035898 F F F
0.3781522460406447 0.2518444346242781 0.8732460087821396 F F F
0.7507660003964456 0.1257053601663964 0.8790004753049560 F F F
0.8764167148438736 0.9853887766054200 0.8635377903555175 F F F
0.8725249432888720 0.1249925596876576 0.7416392756454235 F F F
0.0032456666507961 0.1344099216440136 0.8599903563785488 F F F
0.1219194589281136 0.9980035714442226 0.8760784899046852 F F F
0.1308119604273942 0.1269048086549248 0.7443200590158031 F F F
0.8731491980353416 0.8665815080521695 0.2598279164944218 F F F
0.8716220891165334 0.2569826510608769 0.8737225497202699 F F F
0.1270693137494920 0.8710030465032906 0.2546475114911857 F F F
0.8710124275237794 0.1318703433837200 0.2582314702939105 F F F
0.1295475355571935 0.1305154203946689 0.2574323806850247 F F F
0.0006882124465932 0.0000062579273685 0.2614744902575227 F F F
0.7460242608928436 0.8664964350935860 0.1273799297647988 F F F
0.2554859012883995 0.8739091498037697 0.1258536566396718 F F F
0.9962836863057941 0.8688418965951854 0.1242697214997171 F F F
0.1289275082351400 0.8708201395001265 0.9968116758100547 F F F
0.9968103433556116 0.7424010249535626 0.0005783129639358 F F F
0.8765478603571554 0.8704989816990975 0.7391262466082078 F F F
0.9974973123400138 0.2576060397970342 0.0015618338651126 F F F
0.7540735040378612 0.1305130415186537 0.1181156109631622 F F F
0.8700437838431351 0.9943791159650186 0.1372758995938938 F F F
0.9368329750268461 0.0655067575587633 0.9997844270554708 T T T
0.7482410163061266 0.9919800650498124 0.9971399601647365 F F F
0.2548204665648882 0.1283784632979131 0.1249098108604343 F F F
0.8713699452815035 0.7503320538695061 0.8730324542543139 F F F
0.0010061116357487 0.1412880845160382 0.1373127171885244 F F F
0.1247464776970487 0.8747450590884331 0.7469421618027374 F F F
0.1279939840497258 0.7442632477493911 0.8717642749271036 F F F
0.1220216026188178 0.0020563082583579 0.1203824853342917 F F F
0.1267368466292289 0.1333942987432191 0.9960373802704132 F F F
0.1302889811050698 0.2579343922220216 0.8708068743077271 F F F
0.2557442713248935 0.8736890784857811 0.8713328193102077 F F F
0.0017665916214489 0.9999293889638445 0.7386769492336134 F F F
0.0009188302275636 0.8674166736216653 0.8733387724240437 F F F
0.8719601869015596 0.7411743812970870 0.1276387269045013 F F F
0.8735636178626309 0.8717371178598327 0.9998693834221311 F F F
0.8712630585378583 0.2603094813390621 0.1277873229205522 F F F
0.1304657526141045 0.2592471025171543 0.1269277902080343 F F F
0.2553430068929498 0.0014878990058653 0.9978005655274171 F F F
0.7415843809462233 0.8701355269930975 0.8694265652708473 F F F
