#comment
1.0
16.184 0.0 0.0 
0.0 16.184 0.0 
0.0 0.0 16.184 
Al Mg 
243 12 
selective
Direct
0.9991029399526569 0.0006067247376417 0.4980777822057750 F F F
0.1204209600753906 0.1193430663676625 0.0040215349684352 F F F
0.1291880817605577 0.0048192176609379 0.1295301413423177 F F F
0.0022897282632210 0.1265905147579884 0.1372533669516998 F F F
0.2546940504081844 0.0003465196540398 0.0027849816856200 F F F
0.3786745987999374 0.1259168413818486 0.0026944839871189 F F F
0.3777675532177385 0.0005778362122730 0.1266530100678093 F F F
0.2525033301928776 0.1270009001402070 0.1260346056811958 F F F
0.5007784700473601 0.0005426502542759 0.0011851645372213 F F F
0.6258169093527363 0.1263218039933114 0.0010214691403120 F F F
0.6250208558916688 0.0008823731255719 0.1260894338408891 F F F
0.5012994119496322 0.1260022296017162 0.1263170616706310 F F F
0.7524896144433861 0.0051425098357359 0.0018311051850601 F F F
0.9315531939050441 0.0662105254080276 0.0045861693178258 T T T
0.8671360929708396 0.9999440329676079 0.1367368965193418 F F F
0.7511439903284292 0.1265824518230870 0.1246598204516613 F F F
0.8725080458638850 0.7446713493570960 0.8741404899315218 F F F
0.1249536544642399 0.3776283575532541 0.0026971289990365 F F F
0.1264917341680957 0.2511177380739933 0.1267475753654660 F F F
0.9988477032654904 0.3758510135166971 0.1270040553787385 F F F
0.2519392750486650 0.2517755742084170 0.0038233714546587 F F F
0.3766569435576706 0.3756839825942816 0.0012061196542217 F F F
0.3769240596398654 0.2509397430979511 0.1265841603407683 F F F
0.2515412419401319 0.3759201302550712 0.1265735587815952 F F F
0.5012859230715433 0.2507068813849445 0.0008853228853405 F F F
0.6258264705142036 0.3738768772384560 0.0007183033083348 F F F
0.6254357412987360 0.2506185518701153 0.1255306569471652 F F F
0.5006570527799519 0.3751128936750860 0.1258651934123300 F F F
0.7537666283598112 0.2473952760885325 0.0007040513173461 F F F
0.8723694399173215 0.3758175067714086 0.0009609863638906 F F F
0.8717733777910643 0.2489101058051153 0.1285757083332542 F F F
0.7486620392102570 0.3750464423784458 0.1259039053583113 F F F
0.9992215554106607 0.5005476229366322 0.0007656746835415 F F F
0.1268190402541001 0.6220707444005750 0.0000923212362727 F F F
0.1255771016546186 0.4999445680181780 0.1266408082851748 F F F
0.9990709725319497 0.6221431732602223 0.1272724897807444 F F F
0.2512615277872805 0.4999384014602716 0.0007217637691459 F F F
0.3762491429051813 0.6239799472119983 0.0005808212411086 F F F
0.3760255878260533 0.4997431707160848 0.1257077537389185 F F F
0.2518773290116490 0.6232528324230933 0.1257032511870287 F F F
0.5005729531165429 0.4993978945896241 0.0006581935358753 F F F
0.6243415995240635 0.6238254422337715 0.0010475516870685 F F F
0.6246774691105679 0.4994347149317523 0.1257546008901926 F F F
0.5001381832957246 0.6240278705250759 0.1257912858331998 F F F
0.7486883071594500 0.4995333828050908 0.0007877033863405 F F F
0.8722897053973172 0.6218177932373475 0.0009426353559047 F F F
0.8733737144337524 0.4993740781321177 0.1262674895787960 F F F
0.7486534924457687 0.6237109567554429 0.1262747859903213 F F F
0.7469614351409299 0.7461013144634597 0.7476307805262946 F F F
0.5013646492520608 0.8742338206022494 0.8745664087487018 F F F
0.1277406531588590 0.7456429229947885 0.1263576732224635 F F F
0.6227156367763749 0.7471159781666828 0.8751755883400100 F F F
0.2530004403152193 0.7477482629036221 0.0002885357724411 F F F
0.3776312665535226 0.8740728293345366 0.0006243369354734 F F F
0.3768311889028935 0.7486886963858336 0.1258302529476022 F F F
0.2553014490728036 0.8744031224359476 0.1260321146216584 F F F
0.5000862374923916 0.7491482221766224 0.0008290335496167 F F F
0.6232466849083995 0.8756511919414068 0.0024960453228565 F F F
0.6239916996915481 0.7488252301688377 0.1262570841408975 F F F
0.5000635324301712 0.8747723711243408 0.1265058416756265 F F F
0.7488351063595450 0.7480008620921768 0.0022136534504979 F F F
0.8721965343958324 0.8797658743102309 0.0007511120714405 F F F
0.8712126006506369 0.7488291617578432 0.1273445020700749 F F F
0.7473590792335036 0.8745097183077709 0.1260027301657241 F F F
0.9983876687436860 0.0026731407996201 0.2557420432065404 F F F
0.1279140514544588 0.1272314075599600 0.2540771424425823 F F F
0.1260859074636860 0.0016676263126284 0.3769563560566420 F F F
0.9995608145521813 0.1270450417245945 0.3764162686955912 F F F
0.2532424752507562 0.0018250225194492 0.2514928286940147 F F F
0.3763411217535594 0.1262656053910176 0.2504302801207466 F F F
0.3769233659858039 0.0003423298926737 0.3752390511750615 F F F
0.2519969519619674 0.1260520392954413 0.3756241500116894 F F F
0.5006342348613337 0.0005822734625762 0.2504992401070342 F F F
0.6256402038608314 0.1262677326279493 0.2496907729865266 F F F
0.6235605321766687 0.0005244182432924 0.3755516655791682 F F F
0.5006417464889743 0.1260700549474180 0.3745734296001986 F F F
0.7458398842475058 0.0003793209491720 0.2535018241057289 F F F
0.8723662157451386 0.1270462229218990 0.2539135892611326 F F F
0.8728859864588737 0.0003293932215922 0.3762934038020307 F F F
0.7484586203552058 0.1260735356963407 0.3753556767335014 F F F
0.9997799680377680 0.2527688814967793 0.2525026021320300 F F F
0.1259087212216706 0.3756179542362596 0.2506479228634262 F F F
0.1256864044538970 0.2515843940245054 0.3757887843355459 F F F
0.9993963685737570 0.3762608355394249 0.3754725037798852 F F F
0.2517084216587083 0.2511259200078222 0.2509787794125078 F F F
0.3761053110848435 0.3755162879379313 0.2505539630099550 F F F
0.3758908306763137 0.2507108050344363 0.3749599248324308 F F F
0.2511032935188844 0.3755902594852898 0.3749436954113450 F F F
0.5007274977331041 0.2507228554240026 0.2505284826321335 F F F
0.6245890732798584 0.3753532949125412 0.2505331313214441 F F F
0.6245942859086033 0.2505622249978217 0.3750806542977829 F F F
0.5001433771309708 0.3752447562638279 0.3751456624964455 F F F
0.7481390143362163 0.2508986252808329 0.2512613454624921 F F F
0.8733821406953121 0.3750761966776662 0.2504376260109496 F F F
0.8737147783444736 0.2514157163106993 0.3755170313341190 F F F
0.7491196512698343 0.3753946552325110 0.3749154028856133 F F F
0.9994152365061991 0.4994510288227804 0.2507138100073243 F F F
0.1256235054280080 0.6236122030790250 0.2511503082268761 F F F
0.1256060169267466 0.5000084781667646 0.3750470491860161 F F F
0.9994427115050420 0.6237002745169024 0.3750320877133058 F F F
0.2512250900359169 0.5000821335500928 0.2505289728375682 F F F
0.3759900525853948 0.6239684031604269 0.2503679745137162 F F F
0.3755945193861701 0.4999010811804918 0.3749871776648146 F F F
0.2512467584878119 0.6240323133871225 0.3751904344691779 F F F
0.5000826594321373 0.4998195362979170 0.2504264067865563 F F F
0.6246316974761708 0.6240252009826273 0.2504929045404294 F F F
0.6248244240756881 0.4998865583089364 0.3750133208232833 F F F
0.5001455041279301 0.6243621133175915 0.3749976732098023 F F F
0.7490146840600325 0.4996148294446802 0.2503662875974709 F F F
0.8731921455535545 0.6235825907852821 0.2507421264825480 F F F
0.8737851782497392 0.4997608465560972 0.3749014622300911 F F F
0.7491318669242046 0.6242902861579802 0.3749646375528596 F F F
0.9980296219803600 0.7476401652349158 0.2507425611573874 F F F
0.6231585533510609 0.8743797901556799 0.7475683100574774 F F F
0.1256352339728418 0.7475088427032056 0.3761263202308425 F F F
0.9982852085839449 0.8739806340816165 0.3763694754320336 F F F
0.2530399803993587 0.7475935846302060 0.2512427769590923 F F F
0.3763673330381959 0.8744835318993640 0.2509936710644894 F F F
0.3762084936336446 0.7491008562591637 0.3754238064527952 F F F
0.2527527340041519 0.8745274990869520 0.3762031214300618 F F F
0.5000368035115526 0.7489195677209841 0.2507077291994818 F F F
0.6240660145938395 0.8743434532504896 0.2505764637972263 F F F
0.6244771773618868 0.7492591200473057 0.3751856691824549 F F F
0.5000036277329740 0.8743889505807884 0.3752392607960069 F F F
0.7480711100910197 0.7489348986417637 0.2511021673947106 F F F
0.8722343185476541 0.8734397122007056 0.2537845875098315 F F F
0.8735595917755973 0.7484794661463341 0.3757642136359345 F F F
0.7482711228673640 0.8744179767733289 0.3756664613318783 F F F
0.5000110812278018 0.7486572313058349 0.7488472178716993 F F F
0.1260442342435811 0.1267286157265184 0.4990277065727968 F F F
0.1273457208513815 0.9992733391830471 0.6183412027743166 F F F
0.9980113419625117 0.1280308669056987 0.6193255666152317 F F F
0.2523770005232554 0.0000688106756374 0.4985807355908106 F F F
0.3768345157403266 0.1258132834383965 0.4991980763965699 F F F
0.3771937973354635 0.9996062473601279 0.6233267191487010 F F F
0.2537698672695496 0.1256977721790153 0.6215461843460870 F F F
0.4999362178474963 0.0002746866481629 0.4996606252154889 F F F
0.6244217280860291 0.1260901662867239 0.4994216842848909 F F F
0.6236396046421673 0.0008878926899885 0.6234209759311029 F F F
0.5007068459572797 0.1258932017842211 0.6240958662488141 F F F
0.7479268957470946 0.0003857647177520 0.4987234269723940 F F F
0.8729699201372291 0.1265591234884127 0.4983246909435949 F F F
0.8715406980448475 0.0014402748773873 0.6197925999968480 F F F
0.7479792702298116 0.1265784755202470 0.6231539201768358 F F F
0.9993060957322095 0.2519443629669552 0.4987379184624785 F F F
0.1258405630002332 0.3762904467904382 0.4990792891758372 F F F
0.1256920518303861 0.2534158425269222 0.6215424558404937 F F F
0.9989520210938070 0.3765162369014354 0.6228729111061708 F F F
0.2516741140680518 0.2512583476405081 0.4991177389069464 F F F
0.3759419227458927 0.3754296948565122 0.4995703075767537 F F F
0.3767427395993449 0.2509390694471325 0.6235370254430724 F F F
0.2515018316055272 0.3762857290692791 0.6233545823509850 F F F
0.5003406058845656 0.2507823579282598 0.4995010484838127 F F F
0.6248695242022649 0.3752593417112834 0.4997145924259552 F F F
0.6243772911821972 0.2508063427014431 0.6241902299264203 F F F
0.5001283389556772 0.3753030751285814 0.6242507261275522 F F F
0.7485874325734251 0.2509954986154341 0.4994158721939709 F F F
0.8735026053250927 0.3757356994879830 0.4993434154733696 F F F
0.8729291420156767 0.2517068642228043 0.6228569193561030 F F F
0.7487667500791150 0.3754993636162452 0.6241835743249270 F F F
0.9995890502783126 0.5001989368670225 0.4994942832672707 F F F
0.1256169760724452 0.6238434460626894 0.4993034936705041 F F F
0.1257225568702477 0.5000322905397605 0.6235927510636075 F F F
0.9999765116921384 0.6234736669800429 0.6235006213555067 F F F
0.2510870161518675 0.5000362001542769 0.4994029273853868 F F F
0.3755574205572593 0.6243837560280414 0.4998260251108957 F F F
0.3755635308192561 0.4999456065597919 0.6244060157795142 F F F
0.2511357369422935 0.6239275142932289 0.6240303453561602 F F F
0.4998682601134762 0.5000766502318046 0.4997985085245526 F F F
0.6246516046593383 0.6241511600973952 0.4995493482127341 F F F
0.6246885173368222 0.4996629359878426 0.6242599951389727 F F F
0.4999972863598706 0.6241941805917628 0.6243150523840663 F F F
0.7488668847704165 0.4997317123842749 0.4994684311922665 F F F
0.8738695275707116 0.6234723055872810 0.4990547122501123 F F F
0.8737301521898874 0.4997177749123059 0.6239172053477013 F F F
0.7488843237584545 0.6234681241360773 0.6236677772855730 F F F
0.9996397082303267 0.7479092934731129 0.4984581983779574 F F F
0.1264443726577570 0.8735140308512530 0.4977906616221647 F F F
0.1260246622610302 0.7474907482059359 0.6226163414147026 F F F
0.9999859569111628 0.8721809707148153 0.6186454813445628 F F F
0.2515523005842313 0.7486434510525986 0.4994767411625936 F F F
0.3762959433399098 0.8742971024113134 0.4995774689183697 F F F
0.3761770410011994 0.7490140199333583 0.6239915177145382 F F F
0.2524521064750480 0.8737531014673906 0.6226570832726002 F F F
0.5000904251058452 0.7492909579984744 0.4996893258794947 F F F
0.6238751954690905 0.8745073086027573 0.4994142791145658 F F F
0.6238418554632468 0.7486027088358396 0.6234931100617914 F F F
0.5000259905464630 0.8743829893185245 0.6238386642989132 F F F
0.7485703392478368 0.7486834644406262 0.4992175458148954 F F F
0.8729664986599728 0.8740455010317034 0.4990725711160922 F F F
0.8740619850580480 0.7465023786084413 0.6218063375683766 F F F
0.7469786475810219 0.8742115843220442 0.6223592583760127 F F F
0.2551716121414947 0.8741996914529180 0.8750268759606286 F F F
0.3769648278606289 0.7487359150732646 0.8747195229627848 F F F
0.1245145036503239 0.0020795636784189 0.8765868174586559 F F F
0.9977285423119411 0.1273283296829327 0.8680805230082719 F F F
0.2543347953879328 0.9985819521574913 0.7478367680950424 F F F
0.3778802012736540 0.1255745438329002 0.7479011690778010 F F F
0.3793510081553148 0.9984896004546820 0.8751281382994596 F F F
0.3769744689838209 0.8738023782475115 0.7489374446549235 F F F
0.5007226780719275 0.0003238689376231 0.7489308941620215 F F F
0.6249017526552600 0.1263446438999190 0.7501444869028854 F F F
0.6232799089479659 0.0023137196344965 0.8755870938231949 F F F
0.5001052528776021 0.1260396477046534 0.8749809169674397 F F F
0.7464666535111771 0.0022551400104011 0.7468597383627950 F F F
0.8712005938564781 0.1281550340247916 0.7461558851856026 F F F
0.8698765885162658 0.0018888979215292 0.8692396343385197 F F F
0.7502527400739719 0.1267646516800786 0.8763049782970445 F F F
0.9972412698872530 0.2534979553082465 0.7462829800316564 F F F
0.1255081466435261 0.3773020902855014 0.7472523663886040 F F F
0.2530049509137118 0.7474017326640338 0.7486746639570416 F F F
0.9973694265876578 0.3779116294990723 0.8746262724948793 F F F
0.2539973473042654 0.2535420188215772 0.7467969011811219 F F F
0.3768882534840155 0.3762633650001231 0.7489028342215757 F F F
0.3777857211787252 0.2525382213107425 0.8751766397836659 F F F
0.2530406305325711 0.3772553927059748 0.8751531269663955 F F F
0.5008919656449519 0.2509370418111124 0.7492177295403745 F F F
0.6244007350126528 0.3755076143325159 0.7491207681854828 F F F
0.6250451220020387 0.2505573371148065 0.8752476293635191 F F F
0.5009627491307234 0.3756186207898387 0.8750152417458525 F F F
0.7477882676414785 0.2513211901602219 0.7484674664356344 F F F
0.8731342546835250 0.3757148147312920 0.7489515842859208 F F F
0.8715308212378142 0.2505123352616250 0.8727729792908426 F F F
0.7482824148721775 0.3754030254828364 0.8748449264423778 F F F
0.9994089155936751 0.4997720999906309 0.7486340475709228 F F F
0.1259392413445815 0.6233046900156300 0.7487336018234468 F F F
0.1258704173272568 0.4992447343398383 0.8742032025079615 F F F
0.9998649900754537 0.6211023255078538 0.8734541317055831 F F F
0.2513109346904476 0.5002031317595739 0.7490248797812602 F F F
0.3759182078537047 0.6240458084154764 0.7491945304762885 F F F
0.3762638290793203 0.5000625825005398 0.8749647232778039 F F F
0.2518094276358566 0.6231479499385409 0.8746346105381541 F F F
0.5002270643633221 0.4998298849916636 0.7490427401304541 F F F
0.6239865815177169 0.6232922918896443 0.7489261636797983 F F F
0.6244792279489463 0.4995998255949090 0.8750770072808836 F F F
0.4999767580461303 0.6237097919279163 0.8748789238676067 F F F
0.7489358077646012 0.4996549379104420 0.7492738211799078 F F F
0.8738729867532840 0.6228756287037989 0.7484881211831549 F F F
0.8730930468167993 0.4997824427274717 0.8746158814894562 F F F
0.7480019067561227 0.6231510432605176 0.8748874493268944 F F F
0.0002135648569009 0.7462893169325515 0.7497498881824645 F F F
0.9964819112585700 0.8771818871161078 0.8782489521821818 F F F
0.1278016054465443 0.7452574358174558 0.8740102345590897 F F F
0.1260654407115326 0.8733705683104716 0.7497128775388273 F F F
0.1253391256996988 0.2536135082210188 0.8758848375083099 F F F
0.2542437497312383 0.1252256972699452 0.8766221033107741 F F F
0.1270645449270923 0.1259314025240449 0.7444072609762817 F F F
0.9982445337026532 0.0008153863202386 0.7450574236416871 F F F
0.7462306849487819 0.8740386622597729 0.8757851599142740 F F F
0.1265713725636936 0.8745780841331451 0.2511381524536098 F F F
0.9967098030178517 0.8822004330316444 0.1241560641224163 F F F
0.1270928087303059 0.8779819517043453 0.0000915249480617 F F F
0.9982455596211371 0.7473365149757426 0.0001407696808913 F F F
0.8737934444783401 0.8719084310141899 0.7462871395971665 F F F
0.9932600081061423 0.2448813929755607 0.0024439886529436 F F F
