#comment
1.0
16.184 0.0 0.0 
0.0 16.184 0.0 
0.0 0.0 16.184 
Al Mg Zn 
240 7 8 
selective
Direct
0.9989855817356174 0.9993546059383286 0.9985472025427939 F F F
0.1215669370558052 0.1248207111400894 0.9957797871242055 F F F
0.7500025998145801 0.8745118988617125 0.8734007519516022 F F F
0.8747160045054631 0.7496763698249748 0.8731863968451237 F F F
0.2483811661164761 0.9978463869245889 0.9952149348701887 F F F
0.3762589788809849 0.1250646270356496 0.9942086538520780 F F F
0.8746871765854979 0.8740171059329060 0.7488569094359138 F F F
0.7501175256662170 0.7499667381448630 0.7486390813853659 F F F
0.5022278517867043 0.9992180210492664 0.9969726358449760 F F F
0.6259099691795819 0.1250738972057321 0.9979990505559749 F F F
0.6255931104326813 0.9994061173167171 0.1235365120710347 F F F
0.5035362317282940 0.1253150821289394 0.1241142357117215 F F F
0.7499565580363616 0.9996041525675482 0.9982268197952470 F F F
0.8746935832472748 0.1249955549420841 0.9982920840926814 F F F
0.8740361941815723 0.9994879743648031 0.1226440809312915 F F F
0.7493525364444945 0.1248285076483535 0.1228239899711277 F F F
0.9990612690746280 0.2508391230333821 0.9985496078358927 F F F
0.1240866199339834 0.3759981196096034 0.9984760028867775 F F F
0.5006914785759707 0.8742064497766538 0.8732645338382105 F F F
0.6253018365232764 0.7497985897968911 0.8733363843273839 F F F
0.2480293767854189 0.2520160115035343 0.9947529721285490 F F F
0.3754861666782013 0.3772093346069216 0.9966171643770254 F F F
0.6252627975090669 0.8744606160982131 0.7485095790024978 F F F
0.5005787158061556 0.7499605716676558 0.7484758121091467 F F F
0.5022151357223475 0.2509897850221284 0.9970165259895047 F F F
0.6261803199579821 0.3761511124389321 0.9981514762842507 F F F
0.6263223684586617 0.2512163380731243 0.1236913436159826 F F F
0.5024685787651224 0.3770118443111484 0.1230833970401085 F F F
0.7498642217563116 0.2505195881391142 0.9980048502702697 F F F
0.8748384496233962 0.3756484049998016 0.9984227211552015 F F F
0.8735090343707619 0.2508263287278220 0.1223124666060962 F F F
0.7509746208872180 0.3759091052233346 0.1240305101469715 F F F
0.9995185424958576 0.5001233069337365 0.9983989428203349 F F F
0.1248140412666777 0.6252150682309702 0.9979008252891668 F F F
0.1244056887498241 0.5010975292574471 0.1230213526684712 F F F
0.9995513063509531 0.6241403459139313 0.1240772166055902 F F F
0.2498600021903530 0.5003118235399385 0.9983733542460224 F F F
0.3755525512723946 0.6252318270697929 0.9982238290280496 F F F
0.3760217072999078 0.5001281007167915 0.1223294422295691 F F F
0.2504350404946178 0.6256187844196777 0.1228225716910694 F F F
0.5008012134854851 0.5011825650594255 0.9976898756594779 F F F
0.6254162283628024 0.6252889468315589 0.9980106297543504 F F F
0.6257053935433621 0.5010329898345589 0.1225461487065550 F F F
0.5003766762100694 0.6253486127264647 0.1228558441973657 F F F
0.7505377720927754 0.5006095909335725 0.9983488354614359 F F F
0.8747552888269361 0.6249338523554303 0.9981595818503716 F F F
0.8754807522640148 0.5000576221011295 0.1235669012035036 F F F
0.7506500976015736 0.6253300798693817 0.1228123524844625 F F F
0.9992554726690959 0.7494258458983419 0.9981719301360594 F F F
0.1239286060449607 0.8740609157946742 0.9980353584612377 F F F
0.1243790986332492 0.7490517212890128 0.1231452317283841 F F F
0.9993499803099087 0.8738632125656047 0.1231061286974082 F F F
0.2501187460491939 0.7496860342872016 0.9978810576926982 F F F
0.3755878416300051 0.8731597654649288 0.9971372197486479 F F F
0.3753121624985188 0.7501527684619820 0.1233015453753482 F F F
0.2488038237360786 0.8737593557733971 0.1232234725492564 F F F
0.5006965523579634 0.7494443678616018 0.9982379650122452 F F F
0.6258795982720288 0.8741288700529184 0.9981583443373341 F F F
0.6260560660288697 0.7492626781823614 0.1229573156957242 F F F
0.5020887047630580 0.8730356546278020 0.1233702473075073 F F F
0.7503159178820789 0.7499062853337978 0.9979874676308149 F F F
0.8745706994282407 0.8745086458604552 0.9980512499586720 F F F
0.8750243115331953 0.7497059596020799 0.1230216933569738 F F F
0.7502348283791183 0.8746631657760980 0.1229275107225251 F F F
0.9975345215414417 0.9981704765072251 0.2460310299473139 F F F
0.1209024403103829 0.1255077521268178 0.2451818413126456 F F F
0.2503887543921288 0.8736241476631393 0.8729627949854665 F F F
0.3761009112864875 0.7493806031483448 0.8732176560140249 F F F
0.2511562827720906 0.9978150307984628 0.2512446808214065 F F F
0.3760184047099128 0.1250403893757566 0.2544649427580005 F F F
0.3757670194309216 0.8742802132604280 0.7484926930504606 F F F
0.2504367378004361 0.7496916593036916 0.7488828802190415 F F F
0.5021500797839143 0.9995247795042740 0.2512112928958926 F F F
0.6266253782373912 0.1252308168493782 0.2496259391886446 F F F
0.6258369721595637 0.9998352338567702 0.3748055330102289 F F F
0.5010073630337053 0.1250516956121180 0.3756033893602491 F F F
0.7493188040763256 0.9992868325665273 0.2487874376091382 F F F
0.8719206043776188 0.1249564305781942 0.2467396419842804 F F F
0.8724672744009111 0.9976912694993059 0.3743508561542012 F F F
0.7509658502522009 0.1261890754662204 0.3743511415241808 F F F
0.9967579460494387 0.2530002604362254 0.2439987654749969 F F F
0.1238677603585618 0.3771469954490008 0.2443513356151640 F F F
0.9989603557617950 0.8740698859031827 0.8734604994617806 F F F
0.1245278966206158 0.7497227865458417 0.8733707044990823 F F F
0.2495957809762450 0.2502602905814259 0.2490324980768622 F F F
0.3783389168844064 0.3775120120036901 0.2487671263410631 F F F
0.1244175822956232 0.8737467737497572 0.7491623597223084 F F F
0.9993778287711644 0.7486178897355880 0.7482450470383248 F F F
0.5022737652579549 0.2506050368304565 0.2506778014970135 F F F
0.6254877523395016 0.3760552373325131 0.2486763110071625 F F F
0.6252173950020737 0.2502821162910526 0.3746956173568800 F F F
0.5006185998298254 0.3759193668429853 0.3751629484818869 F F F
0.7494896765339162 0.2507421923193768 0.2486955768506188 F F F
0.8755614479357267 0.3765066906076630 0.2503186084286809 F F F
0.8761282146045806 0.2558892009248948 0.3739332279947871 F F F
0.7477639407449930 0.3754197977847426 0.3737615833953041 F F F
0.9994392209860026 0.4974808141417785 0.2530222850565919 F F F
0.1245468115641440 0.6260413411000615 0.2480620012807533 F F F
0.1320115560404088 0.5035350573530191 0.3708246769584819 F F F
0.9997383353358232 0.6197270179835559 0.3770944532677367 F F F
0.2524693685936836 0.5024765157845200 0.2459262451740312 F F F
0.3762938463840734 0.6260227811760668 0.2484426643576901 F F F
0.3777850110690809 0.5028396156161871 0.3746079582460069 F F F
0.2521414336551905 0.6270608052003293 0.3740896849002803 F F F
0.5015609685459579 0.5016429284488299 0.2486313910472090 F F F
0.6255740711379372 0.6255861379951398 0.2483755813188569 F F F
0.6250299352618875 0.5006915439929497 0.3742190487891907 F F F
0.5013315842814317 0.6258450946280624 0.3744481679907146 F F F
0.7485947970179708 0.5008915581006791 0.2472871322647087 F F F
0.8751753883964819 0.6253383954309574 0.2484356280849481 F F F
0.8672992286521188 0.5020070661708470 0.3722587677290012 F F F
0.7484644855599157 0.6266181892407989 0.3741608487524809 F F F
0.9994694478398040 0.7483785711149398 0.2498882291945524 F F F
0.1244983073079511 0.8729462401765378 0.2479622167159261 F F F
0.1245710315065349 0.7492077522100188 0.3743784687074059 F F F
0.9983266411484559 0.8734756670725070 0.3744971271672717 F F F
0.2502730609699444 0.7493310802546027 0.2487064669947336 F F F
0.3765041005715157 0.8730797686090441 0.2506843857186460 F F F
0.3763649680983058 0.7497888061891667 0.3749075040386431 F F F
0.2516533765453056 0.8729205596879387 0.3754418084083761 F F F
0.5012074580336102 0.7494547429068010 0.2487172212252199 F F F
0.6258053485413388 0.8742381299496864 0.2486919462204205 F F F
0.6251807141373242 0.7504366588284653 0.3745291561133549 F F F
0.5008863357256532 0.8748857142338134 0.3750394762128818 F F F
0.7500842603953237 0.7496066090094894 0.2483753456884244 F F F
0.8739633526973936 0.8735724313094018 0.2487198187161650 F F F
0.8750743691481303 0.7484224276318902 0.3745231228281336 F F F
0.7495847234838418 0.8737150989173718 0.3745418651197187 F F F
0.9979236869805408 0.9980840383312575 0.5024922394281945 F F F
0.1252099719136206 0.1258610842948572 0.5049699194359031 F F F
0.1247802224674177 0.9986413398982177 0.6254811695361920 F F F
0.9983639296707862 0.1250085201558917 0.6255904214450277 F F F
0.2523539433172139 0.9994879593479682 0.5016134386818537 F F F
0.3763967124846391 0.1242276291768487 0.4998570533831966 F F F
0.3762313859041245 0.9992663435875582 0.6249255154700882 F F F
0.2509436185701551 0.1243251659984783 0.6265642348908809 F F F
0.5003213437388333 0.9992465168422272 0.4994978781615775 F F F
0.6250503977051385 0.1243650706622236 0.4996809085521953 F F F
0.6250406688026430 0.9992356774135538 0.6242665329564018 F F F
0.5007120921479893 0.1246468570741627 0.6242408290154184 F F F
0.7492994957320812 0.9990354681790492 0.4997043961141827 F F F
0.8717974819365342 0.1250704446405653 0.5019721488192626 F F F
0.8736659747655967 0.9987030483883004 0.6250026566712442 F F F
0.7491338364351890 0.1245954423270841 0.6250362654254092 F F F
0.9961402176951646 0.2547248802567850 0.5030984073290877 F F F
0.1335577955863324 0.3743938488593742 0.5076151802558322 F F F
0.1242525821658397 0.2500715232975727 0.6277747540446151 F F F
0.9989575932976152 0.3793726799458267 0.6210594730336112 F F F
0.2530109219994531 0.2480353254654083 0.5033100477098910 F F F
0.3778839770012202 0.3757379386003370 0.5020303582100285 F F F
0.3765917935234152 0.2499652542187983 0.6256792904809861 F F F
0.2530336631745232 0.3757364621630260 0.6280825527587166 F F F
0.5006544505289297 0.2502323352465827 0.4998947521926891 F F F
0.6249342384003278 0.3756323046308813 0.4997028316944128 F F F
0.6250720947727316 0.2505228878820722 0.6244075414847972 F F F
0.5012491441115792 0.3758003109232829 0.6248851116555856 F F F
0.7478194585131679 0.2491184428081542 0.4997846758807491 F F F
0.8658304711353905 0.3739968724033038 0.5023007122981488 F F F
0.8734250591602759 0.2505742691408582 0.6263275943318232 F F F
0.7480498245781187 0.3758308986328700 0.6261790561666654 F F F
0.0004043722034195 0.4367676735073374 0.4383149883506922 T T T
0.1230603169057884 0.6224501451660105 0.4992616223602115 F F F
0.1229205042740204 0.5015480169573757 0.6228988464123987 F F F
0.9993551468405907 0.6224090188282011 0.6215643343987642 F F F
0.2523685380251566 0.5025814207278343 0.5012859777032376 F F F
0.3766018343238070 0.6260042506588392 0.5001023757246623 F F F
0.3765571019062892 0.5010833669182277 0.6251299388398958 F F F
0.2504589834579163 0.6256084169001594 0.6247360886078214 F F F
0.5013421575563762 0.5009472918727407 0.4999437528829663 F F F
0.6251758307631785 0.6256012495190980 0.4994474503247565 F F F
0.6252117671082097 0.5007231810964387 0.6245665383499084 F F F
0.5008284521125455 0.6256042439008673 0.6244566645291392 F F F
0.7480925235188410 0.5013354512048426 0.4998851806987236 F F F
0.8766298006328991 0.6220269385424307 0.4991644080928857 F F F
0.8763119374396661 0.5005025186296016 0.6216463496591562 F F F
0.7503158358149684 0.6251976443597196 0.6239951988030019 F F F
0.9995468339725210 0.7482470837259905 0.4990962216457775 F F F
0.1250185172625533 0.8729685360296949 0.5009078076791611 F F F
0.1243208358734934 0.7487685176479676 0.6242163933562810 F F F
0.9991777084204966 0.8734484961365118 0.6246670738413937 F F F
0.2495605047033559 0.7483530105035893 0.4999071985467007 F F F
0.3759581550210520 0.8743107371142479 0.4998230278991487 F F F
0.3755607808904046 0.7500317923262172 0.6241642780663267 F F F
0.2503792452898695 0.8738671866329220 0.6246069189970289 F F F
0.5008710047949489 0.7502641890156838 0.4998154995653708 F F F
0.6254087865280354 0.8744499362151614 0.4996448761924863 F F F
0.6258543088707251 0.7498602501329906 0.6238501591047404 F F F
0.5006389332891408 0.8745672669515466 0.6241663727295005 F F F
0.7509768189701206 0.7487445991433939 0.4993448227962456 F F F
0.8741983347256750 0.8734238573617890 0.4996195272775041 F F F
0.8750733285203759 0.7492749828934357 0.6237061690669807 F F F
0.7501078425773781 0.8741737548895849 0.6239591630963160 F F F
0.9989972517387953 0.9991569972770699 0.7492232482246406 F F F
0.1242743888557865 0.1244690822580179 0.7497763744735595 F F F
0.1238400193701583 0.9987070227283751 0.8728356984665768 F F F
0.9984442323463170 0.1250529774023722 0.8731115389578209 F F F
0.2503051117830245 0.9989136379814858 0.7492178860810235 F F F
0.3756797929433951 0.1246725190924905 0.7490053755358679 F F F
0.3758873311068155 0.9986810091301993 0.8728504340489819 F F F
0.2496611410728066 0.1246017162123995 0.8724742559678360 F F F
0.5007175315674509 0.9994363859546465 0.7487612610563256 F F F
0.6252965667980007 0.1248227728242126 0.7488114750470763 F F F
0.6255440395696655 0.9991312842190403 0.8731870306102105 F F F
0.5012486107722051 0.1247386735075001 0.8726166305461752 F F F
0.7497232171515578 0.9990848730740800 0.7489332024088253 F F F
0.8740218038338072 0.1246218549951718 0.7492098623491288 F F F
0.8742664307006538 0.9991598565305742 0.8737068831101136 F F F
0.7496691556090338 0.1244916966958383 0.8737006403640383 F F F
0.9988861183787570 0.2514828429715505 0.7490117141973501 F F F
0.1243571415628078 0.3761036568483703 0.7492585401233388 F F F
0.1237582391325836 0.2508249698651146 0.8727319259798607 F F F
0.9991866197393999 0.3758988873035721 0.8737187979957585 F F F
0.2503513426985003 0.2502139113259202 0.7497315565192170 F F F
0.3763196595864422 0.3760816344676407 0.7497618314714347 F F F
0.3760510774945220 0.2509445658739891 0.8729163928511926 F F F
0.2499709225927450 0.3765513279942175 0.8727619660773874 F F F
0.5007959043554522 0.2505247632457144 0.7490279686406067 F F F
0.6251845938694117 0.3761078173466513 0.7496181742069967 F F F
0.6254373472939697 0.2506194958361373 0.8734253147044698 F F F
0.5009839732552356 0.3764097548780992 0.8736856742405884 F F F
0.7494373320660788 0.2503929104851860 0.7494317559794687 F F F
0.8748473596148445 0.3760431212367107 0.7487298458170518 F F F
0.8742447830184026 0.2506555889563972 0.8737771862440665 F F F
0.7502223148980693 0.3761900464688457 0.8735188602992815 F F F
0.9993685313024948 0.5005956052118155 0.7486579121769183 F F F
0.1246732914142129 0.6252760558384922 0.7493646091350857 F F F
0.1245885465684294 0.5005568806823840 0.8736915717799384 F F F
0.9992760619715372 0.6249826466932072 0.8735871547632268 F F F
0.2495824515114723 0.5010297685060773 0.7484035159456199 F F F
0.3755944103719080 0.6253876422538689 0.7485278450930790 F F F
0.3756683274716746 0.5014025963504827 0.8733129200474499 F F F
0.2506121618434217 0.6252660705692100 0.8735896949523603 F F F
0.5006853689741745 0.5008953345854567 0.7491421820498638 F F F
0.6256586393199900 0.6250948357698981 0.7487789675590877 F F F
0.6256145669059573 0.5008007322585599 0.8735571241839513 F F F
0.5005719887879881 0.6253349386762508 0.8733591311233574 F F F
0.7510603948720850 0.5005925221380109 0.7480940921833568 F F F
0.8748869714373713 0.6249296153248042 0.7483527134281459 F F F
0.8746605032892899 0.5006272787315829 0.8736003105479371 F F F
0.7500956945290737 0.6251780712348194 0.8733200453666001 F F F
0.2540646232226735 0.3754539630723384 0.3744863971803074 F F F
0.3769968875599491 0.9994049350805939 0.1235360342578290 F F F
0.1258678880023156 0.0005037813829173 0.3754220089337246 F F F
0.1187883595207401 0.2561174952710514 0.3750258343085815 F F F
0.2464018692789476 0.1240828846208082 0.1220807974099809 F F F
0.3758238898023807 0.2513098440703783 0.1229628403618771 F F F
0.9955164938084440 0.1257928821418723 0.3750025527581358 F F F
0.2488955945019713 0.3758268258359961 0.1230604011662732 F F F
0.3756763085685908 0.9995204832200403 0.3761435107711820 F F F
0.9992862476646667 0.3758988434360725 0.1226345504235762 F F F
0.1236750227802037 0.2510574268911507 0.1201390193703904 F F F
0.2497323157313024 0.1273170622773143 0.3768245939288636 F F F
0.3767234318180608 0.2496484311403614 0.3762777119342403 F F F
0.9980809827682521 0.1253315100242290 0.1217480063111819 F F F
0.1229257200995481 0.9985000965756667 0.1224411187288610 F F F
