#comment
1.0
16.184 0.0 0.0 
0.0 16.184 0.0 
0.0 0.0 16.184 
Al Zn 
240 15 
selective
Direct
0.0007166164698570 0.0010105965702430 0.9994253120786510 F F F
0.7500566101728422 0.8750344610420786 0.8739081281404015 F F F
0.1250709824362991 0.0021087668945794 0.1246748758562847 F F F
0.8749773392685971 0.7500846663338081 0.8739858788225469 F F F
0.2497924653054829 0.0014089089708297 0.0004381394190919 F F F
0.3751137360145464 0.1248503919153987 0.0000393934833495 F F F
0.8748109213550684 0.8750791928794516 0.7490581628597230 F F F
0.7501950425037750 0.7499699123002499 0.7487043796992228 F F F
0.4995102110887963 0.9999829079980125 0.9992283045433381 F F F
0.6248699901089959 0.1247258810103363 0.9984817743064681 F F F
0.6250557645667866 0.9996811603402284 0.1234201419890215 F F F
0.4997785492950609 0.1247591254727534 0.1242858456313884 F F F
0.7501522098792648 0.9999510695309196 0.9986481498949448 F F F
0.8750757790504754 0.1251716004730253 0.9991131085074633 F F F
0.8754208384668560 0.0003564110217748 0.1238773569341359 F F F
0.7497862738059146 0.1249240734861213 0.1234565774827781 F F F
0.0008667485492748 0.2503831702623732 0.0005938549774826 F F F
0.4998693255358544 0.8750903923810184 0.8739287513543692 F F F
0.1251786530726734 0.2524833284342298 0.1265929501081241 F F F
0.6249515434879753 0.7499382914708547 0.8736914808072390 F F F
0.2497182500774545 0.2498080540410237 0.0014185690737462 F F F
0.3740691682919405 0.3742429344556591 0.0006519981614067 F F F
0.6248057120805788 0.8750622155863879 0.7489368241267796 F F F
0.4998960859100683 0.7499548269452986 0.7486007182678471 F F F
0.4996148908250057 0.2499328365606491 0.9992362737491172 F F F
0.6249930154894628 0.3753409689071832 0.9985633161985554 F F F
0.6251413001921520 0.2500404131958028 0.1238834993465757 F F F
0.4998160592032170 0.3749475839565531 0.1239944939459364 F F F
0.7500016548940859 0.2502655732481359 0.9986511062687899 F F F
0.8755641463668848 0.3750109422182435 0.9995418054120371 F F F
0.8752618575880599 0.2507550304876378 0.1237890016618590 F F F
0.7505483246636974 0.3753299252051547 0.1246590656388573 F F F
0.0003119206570316 0.4988891675721794 0.0000312930601012 F F F
0.1249802616325137 0.6236816805571943 0.0000698173686839 F F F
0.1250139839209074 0.4966157505547598 0.1261544808044048 F F F
0.9997880057831774 0.6255821998735686 0.1230090914658446 F F F
0.2496991922626841 0.4985554192480689 0.9997712476470837 F F F
0.3751825805916975 0.6248327024561257 0.9984321082966046 F F F
0.3744153795979772 0.4992673101753025 0.1238767295330740 F F F
0.2500720957790045 0.6248154067789108 0.1237274881954490 F F F
0.4997399430951993 0.4999522431427862 0.9983438445143463 F F F
0.6247999296116880 0.6250928308379127 0.9981598751422889 F F F
0.6250581136114799 0.5002225874518110 0.1234060293181266 F F F
0.4997322558096346 0.6249258831216821 0.1233899659431219 F F F
0.7500102642636749 0.5000979661335250 0.9982994718235855 F F F
0.8748418213496115 0.6248653995505908 0.9986023121649030 F F F
0.8750557531722676 0.4992196942738434 0.1236461812862017 F F F
0.7500226670455354 0.6250013770751740 0.1231978529360550 F F F
0.0000577516397509 0.7502276689815582 0.9986484644236344 F F F
0.1252186893887443 0.8755656346801491 0.9994358882539681 F F F
0.1250107196142797 0.7503640856209302 0.1239307705288388 F F F
0.0001484754111899 0.8756298528219891 0.1240245032318952 F F F
0.2498729407812140 0.7498373369915007 0.9992260618122407 F F F
0.3749793406244321 0.8755509441009505 0.9992097949922770 F F F
0.3748939737380078 0.7496215697033164 0.1238515708223546 F F F
0.2504651743539162 0.8759286612122071 0.1240492688165681 F F F
0.4997833122109215 0.7499858843714358 0.9984214507506030 F F F
0.6251086745449519 0.8748834025588147 0.9982154709009036 F F F
0.6250020267798472 0.7500098512669593 0.1231811388802705 F F F
0.4998024655933978 0.8752033490670482 0.1233658157562009 F F F
0.7502010986110828 0.7498951770445758 0.9984858652523201 F F F
0.8750890951068943 0.8752749189658496 0.9986698792961820 F F F
0.8749814254865138 0.7502053141312812 0.1236829412617473 F F F
0.7500298722365796 0.8749915760724766 0.1234045129475512 F F F
0.0004507706801469 0.0014935214356501 0.2491403475602071 F F F
0.2503048259292429 0.8752403519368269 0.8743923910102311 F F F
0.1249314997484128 0.0014071770337083 0.3737125211752524 F F F
0.3749831319066529 0.7499703543215223 0.8739430092843558 F F F
0.2502003978119639 0.0019241126869805 0.2492096154986710 F F F
0.3733073451087242 0.1267929727975692 0.2491450714413536 F F F
0.3752752294996939 0.8750262884871511 0.7488130921973155 F F F
0.2501346005818635 0.7500335137970823 0.7491324776530626 F F F
0.4991388294079504 0.0002170302957895 0.2487876793814344 F F F
0.6250345725086015 0.1250675982526044 0.2490419936768914 F F F
0.6251482218244616 0.9998229486177044 0.3742255718558906 F F F
0.4997994575414959 0.1247428776811024 0.3734739131201693 F F F
0.7495658870557250 0.9996101135870324 0.2491070075817509 F F F
0.8737850026287516 0.1243128980757718 0.2488734883260628 F F F
0.8752168292449791 0.0002506046258102 0.3742847858931820 F F F
0.7505885680539315 0.1257863141149559 0.3742478209351934 F F F
0.9991225145768100 0.2430842575839374 0.2474083996962992 F F F
0.9998329545191842 0.8753277141373168 0.8740984877266359 F F F
0.1264559813582155 0.2430911102576364 0.3751106337256435 F F F
0.1249211190143430 0.7499775629458412 0.8744200912950937 F F F
0.2476865439155524 0.2518416424188089 0.2485586845248827 F F F
0.3733777138272987 0.3739846010579971 0.2489987782406792 F F F
0.1248905873704463 0.8751108435131069 0.7496825787531401 F F F
0.9996827213331617 0.7499110025126410 0.7491982732298721 F F F
0.4992330721775098 0.2498679625024442 0.2488463618795072 F F F
0.6246175005207356 0.3752388403379517 0.2489201186307078 F F F
0.6249502872231133 0.2501266959455273 0.3738109418253850 F F F
0.4994343784500908 0.3749824384684077 0.3735319765461612 F F F
0.7502268786133444 0.2505185298012370 0.2490024877212693 F F F
0.8793802760607823 0.3747089898519120 0.2512871354958901 F F F
0.8772306435871329 0.2517064600062013 0.3741167578566990 F F F
0.7505162239009737 0.3753530053495449 0.3739365892380982 F F F
0.9986580275588863 0.5051271754931037 0.2476590542703034 F F F
0.1254039324530266 0.6255668157135027 0.2483840774715455 F F F
0.1261677860523522 0.5051829057605459 0.3756429638241159 F F F
0.9995216936489691 0.6261520915151000 0.3745433471552082 F F F
0.2474582503157684 0.4967646813197497 0.2487721992239167 F F F
0.3739319755166776 0.6237556559554239 0.2486962769314167 F F F
0.3740993720583963 0.4994543819804410 0.3736324375403197 F F F
0.2508002995209451 0.6257773032456184 0.3739845175013441 F F F
0.4996284598333056 0.4999422336706169 0.2485801645054099 F F F
0.6251093484261573 0.6248693213750015 0.2487511020561899 F F F
0.6249177191736407 0.5000889886897533 0.3738082088110601 F F F
0.4998459687442441 0.6248947581633566 0.3737640511842839 F F F
0.7504636132109986 0.4998821777827979 0.2489191148651947 F F F
0.8739373501892326 0.6259299130750973 0.2487280389748727 F F F
0.8772275771664036 0.4983337560596886 0.3741072874874712 F F F
0.7508899639168327 0.6240855531919268 0.3741195484871625 F F F
0.0000488376704273 0.7505057109110883 0.2489168982015334 F F F
0.1252791912510456 0.8758962275543151 0.2489361665536947 F F F
0.1250158203202181 0.7504725549929514 0.3740368844822858 F F F
0.0000352265265527 0.8753418243237712 0.3742570541828621 F F F
0.2500522308575266 0.7504002020846091 0.2488383492464105 F F F
0.3748051695608250 0.8758158861753366 0.2488487755027399 F F F
0.3755022705477045 0.7500752279302799 0.3738060490778711 F F F
0.2502464766777844 0.8756134301637093 0.3738434993308951 F F F
0.4999756203507492 0.7499993478289276 0.2486681255934496 F F F
0.6245068854016590 0.8749747240192661 0.2487426144205230 F F F
0.6250503786436253 0.7499004818149440 0.3740333422881857 F F F
0.5001182858120795 0.8751845241440911 0.3739652176860088 F F F
0.7495378085306879 0.7502035929419523 0.2489858947827755 F F F
0.8751450014931874 0.8753861054346896 0.2489524150970169 F F F
0.8747791432114174 0.7503081135979407 0.3743610786255873 F F F
0.7500078475501099 0.8749754793996333 0.3743450564754854 F F F
0.0000741721906337 0.0003663793279031 0.4990119412813055 F F F
0.1253958569252674 0.1242293240203181 0.5002589870105068 F F F
0.1248107705112969 0.9997514481028762 0.6246190461387193 F F F
0.9999213491236716 0.1258401113686175 0.6235595926636548 F F F
0.2503686763244886 0.0003697074547712 0.4982354776389670 F F F
0.3749127870295923 0.1249221702036677 0.4979342681721342 F F F
0.3750431207499794 0.9999625863653461 0.6237523130609908 F F F
0.2503595908727408 0.1249690451153071 0.6240750885358806 F F F
0.4996747235362058 0.9998144887525118 0.4986504808523485 F F F
0.6250132509385552 0.1248338657325978 0.4988503597442628 F F F
0.6249894229992992 0.9998950718647321 0.6237080029260157 F F F
0.5000205398016893 0.1246506289224516 0.6235740947678325 F F F
0.7500318376494775 0.0000192695864749 0.4990626877614966 F F F
0.8749798429077388 0.1249110243185074 0.4992079988413605 F F F
0.8750706022150234 0.0000243218404998 0.6240362785847389 F F F
0.7498167223941858 0.1246834278573156 0.6240444082895750 F F F
0.0001927817509080 0.2516926277080402 0.4971137289413721 F F F
0.1229560603459368 0.3746653624638097 0.4948112290663211 F F F
0.1250299546968343 0.2504923814439368 0.6239339755834278 F F F
0.0000668052107888 0.3753048167813643 0.6237977625939113 F F F
0.2504832588124015 0.2503590426783571 0.4981160186837859 F F F
0.3743872665445042 0.3746210014896812 0.4975164076455274 F F F
0.3750116731743730 0.2501012927830742 0.6237700105629902 F F F
0.2491197157057584 0.3750737017525035 0.6233148665074287 F F F
0.4997177058321725 0.2497722947090646 0.4983621552721203 F F F
0.6247937473926184 0.3753533708293680 0.4985970338781631 F F F
0.6250868671392575 0.2502225454626070 0.6236620047844396 F F F
0.4998680075163555 0.3752268456943992 0.6232707962547704 F F F
0.7501264685972223 0.2503196931646851 0.4989662865412558 F F F
0.8774119889987528 0.3750011480963580 0.4967534881921918 F F F
0.8750644854094093 0.2503266354687071 0.6239301593180310 F F F
0.7507528294237403 0.3753608116154553 0.6230287748121695 F F F
0.0000389901747593 0.4982691312661515 0.4971855205760106 F F F
0.1250784746185380 0.6259580038599892 0.5003210344940816 F F F
0.1248824451400249 0.4997367497241283 0.6238049246027075 F F F
0.9997430708639023 0.6241395475293944 0.6233198460917084 F F F
0.2501910224318005 0.4990477029732919 0.4989395380440237 F F F
0.3751965221538143 0.6249122092313298 0.4989780928929659 F F F
0.3751250040693250 0.4999494201724910 0.6237453638396182 F F F
0.2502492648221946 0.6249315431220475 0.6240507723023582 F F F
0.4999283877774278 0.5001974129506018 0.4986674388919954 F F F
0.6250525656583159 0.6250013107350829 0.4985852602929701 F F F
0.6249756218309038 0.5001460332742316 0.6234305128278725 F F F
0.4998613595331100 0.6250402816672610 0.6235618597190254 F F F
0.7501704300906999 0.5000384726584701 0.4988174020197760 F F F
0.8748978492599780 0.6250864094741339 0.4991200090478843 F F F
0.8750880538979514 0.4999844664646773 0.6237570959992391 F F F
0.7500060459579525 0.6250322230804941 0.6237272899523518 F F F
0.9998289782921509 0.7503467876610131 0.4995491661329744 F F F
0.1251241930490393 0.8753639447781807 0.4990481401261583 F F F
0.1247223743056348 0.7502822079679967 0.6246074991219422 F F F
0.9998034100419685 0.8750833421302149 0.6241354873243925 F F F
0.2501109974943313 0.7502433323038916 0.4990885229197362 F F F
0.3752204693635985 0.8753872256550038 0.4986241156569146 F F F
0.3750408516834319 0.7499557208748063 0.6237348602997178 F F F
0.2501313971927996 0.8750657831612296 0.6240010724307784 F F F
0.5000397486365833 0.7500670381278602 0.4989507825573534 F F F
0.6249687490587293 0.8749608221613807 0.4991352418594353 F F F
0.6249945318926612 0.7499161472536976 0.6234460200971061 F F F
0.4999297370019267 0.8750147611972289 0.6237319631573423 F F F
0.7500935950365133 0.7497620854241968 0.4988528256077289 F F F
0.8747822962547789 0.8752042843092449 0.4994479777048948 F F F
0.8751726333450649 0.7498152171724498 0.6238565403439281 F F F
0.7500550565010985 0.8750770826817719 0.6238965849348316 F F F
0.9997918196332924 0.9999743670643298 0.7493279185258249 F F F
0.1249418592574589 0.1252163617887399 0.7491762391460242 F F F
0.1251754406863917 0.0006617370002120 0.8751684470476877 F F F
0.0003720157540771 0.1253341511886804 0.8746015553447034 F F F
0.2501967302994089 0.9998946383673631 0.7493504279578871 F F F
0.3751571683668260 0.1248067250598085 0.7491113732595611 F F F
0.3748673818098943 0.9999707010045068 0.8743710430140407 F F F
0.2497965026270817 0.1252206717145037 0.8750038937028295 F F F
0.4999681710321080 0.9999060553406522 0.7488592410899960 F F F
0.6250052566373637 0.1246733904918206 0.7485703837016595 F F F
0.6249250277717149 0.9998641829229264 0.8737842001357726 F F F
0.4998451406572161 0.1246436640190151 0.8741386293464352 F F F
0.7501018727224008 0.9998672663026251 0.7488410403824325 F F F
0.8750566636277333 0.1248870508505707 0.7490182093609563 F F F
0.8750033604269054 0.9998541020923655 0.8741874408411009 F F F
0.7499398174182910 0.1246895295191684 0.8737265600718583 F F F
0.0000266411169043 0.2502364392210131 0.7495416484794121 F F F
0.1249097569985359 0.3751593349356038 0.7495643854349985 F F F
0.1251874724753823 0.2501159032437203 0.8755579168782048 F F F
0.0001197739696101 0.3750139012803900 0.8748741488599305 F F F
0.2499710306630044 0.2500205867319141 0.7492679131206487 F F F
0.3748360260161306 0.3750999216556813 0.7488368781652807 F F F
0.3748624706815603 0.2499878687477664 0.8745084101111263 F F F
0.2498649998385236 0.3748131232148780 0.8748377514937971 F F F
0.4999835342012255 0.2499488454164731 0.7488081415714107 F F F
0.6249734387892161 0.3753974228049647 0.7484080608034973 F F F
0.6248845983615574 0.2500533676783141 0.8734686317766001 F F F
0.4996636362491575 0.3751761106956783 0.8739405230193420 F F F
0.7500488251969107 0.2502343118307022 0.7486565778409233 F F F
0.8751842864374940 0.3752659240458866 0.7492011246944632 F F F
0.8751363790068548 0.2499742609426109 0.8742280016983225 F F F
0.7501897613573321 0.3753457414267075 0.8736545387411635 F F F
0.9998563999303460 0.5000825183708943 0.7493945356742769 F F F
0.1247242845151396 0.6247060006614674 0.7490969860063045 F F F
0.1249656065283368 0.4996340532844233 0.8749525803015691 F F F
0.9998898152135690 0.6247075525078211 0.8744055894984660 F F F
0.2500220521264837 0.4999908307254826 0.7491093570833546 F F F
0.3750991271519728 0.6250260190210061 0.7489396991074018 F F F
0.3750510227747508 0.4998835927585389 0.8739996394107161 F F F
0.2500023083799615 0.6247022922362343 0.8743608751066816 F F F
0.4999489921344696 0.5002422277286809 0.7485110282091927 F F F
0.6249375186980940 0.6250137718167051 0.7484212845827493 F F F
0.6248325562782414 0.5002566898279713 0.8733364398990614 F F F
0.4997528275378124 0.6250471849568243 0.8735157981958761 F F F
0.7500950207560401 0.5001405894927939 0.7484936005048909 F F F
0.8751297747909393 0.6250196825032506 0.7488880218693800 F F F
0.8750591576121147 0.5001946989457444 0.8739895673705944 F F F
0.7499878834035748 0.6250323095433360 0.8736830720133573 F F F
0.3746512899246432 0.2499441862399800 0.3738862454852123 F F F
0.2463360034711440 0.3742132221964935 0.3711317361723249 F F F
0.0649946381950422 0.3743707484949912 0.3091255359903581 T T T
0.2513993743585805 0.1243888218275122 0.3740976730044192 F F F
0.3752272003464697 0.0000441173627751 0.3736472703454715 F F F
0.9996252668141014 0.1246788461084675 0.3747362510693506 F F F
0.1259371011529169 0.1250249180395602 0.2486887922950407 F F F
0.2472870346506066 0.3742789937863962 0.1271242941834919 F F F
0.3749032175728233 0.2498364230891552 0.1243210889944205 F F F
0.0026367895615966 0.3745880019933618 0.1277369331392129 F F F
0.1250352147068183 0.3748217468002918 0.0007139497256791 F F F
0.2507577662245407 0.1247674679614168 0.1241703498290626 F F F
0.3747479759196862 0.0006466713045883 0.1246798265095308 F F F
0.0000560892046657 0.1245975904394513 0.1231012026827172 F F F
0.1251975639501917 0.1269638206180282 0.0016197964370335 F F F
