#comment
1.0
16.184 0.0 0.0 
0.0 16.184 0.0 
0.0 0.0 16.184 
Al Mg 
225 30 
selective
Direct
0.9969972817261410 0.9973542536002307 0.5027554203875312 F F F
0.8737239169706701 0.7495453801066109 0.8730493827840724 F F F
0.1249697766213298 0.9906820956748973 0.1233421680989020 F F F
0.9902082770789372 0.1266497530415508 0.1200607944027399 F F F
0.8735986214628225 0.8740535022339788 0.7487367530050677 F F F
0.7499907845142926 0.7502210556250783 0.7489601843016015 F F F
0.5018492429924668 0.8735033867823817 0.8721062381338007 F F F
0.2537422924237008 0.1143258474451699 0.1269276058433811 F F F
0.5024044602229019 0.9980167658895649 0.9944759382117079 F F F
0.6289529149869357 0.1225838245810943 0.9956044719608880 F F F
0.6284125790418218 0.9964529133532011 0.1222492466902309 F F F
0.6261484508498192 0.7501276384297672 0.8728405788537275 F F F
0.7504877355998790 0.9986703070857204 0.9969158086179729 F F F
0.8712083277971838 0.1253883993013603 0.9952710118117324 F F F
0.8695302443673093 0.9984173228279006 0.1225428832839903 F F F
0.7487016489903580 0.1238369035071522 0.1222106909538432 F F F
0.9998996483648462 0.2491856607758600 0.9944865914244382 F F F
0.1239179565646331 0.3819742441309758 0.9897172112669096 F F F
0.1945815296067832 0.2541878082530197 0.0652737863001520 T T T
0.6261550153552673 0.8740322341153522 0.7495279388332688 F F F
0.5012716644512841 0.7499110292530274 0.7492883483255749 F F F
0.2495851627817350 0.8712167428825656 0.8697327500208966 F F F
0.3765777134872973 0.2495213998658989 0.1256056852042562 F F F
0.2509199642729349 0.3903356497750526 0.1230935053848747 F F F
0.3761361891879322 0.7497342142592466 0.8718551484157363 F F F
0.6299850473881530 0.3766079717608878 0.9970142280537682 F F F
0.6313958197188022 0.2512083037045955 0.1233409335833376 F F F
0.5063784667885149 0.3752270064218701 0.1233487733956970 F F F
0.7496031300379882 0.2501162340681435 0.9965101039153405 F F F
0.8722726084399356 0.3760906537985215 0.9955874829347486 F F F
0.8693133712904432 0.2503867625822697 0.1207308515384244 F F F
0.7513005368052071 0.3769933825313893 0.1224155839535629 F F F
0.9961587485481787 0.5035179886121361 0.9940940116155900 F F F
0.1233362318786514 0.6288508260504524 0.9948169852794171 F F F
0.3760691221326123 0.8732501200777992 0.7489637642917654 F F F
0.9959074338776380 0.6285736352123991 0.1224876289874209 F F F
0.2496870269344755 0.5050204342682970 0.9928895904917913 F F F
0.3750963169221868 0.6280456914688429 0.9955824573060811 F F F
0.3755097090841475 0.5079654216771984 0.1211375032477302 F F F
0.2506377463370873 0.6308943024700830 0.1211641187291328 F F F
0.2501095853523034 0.7496387507004402 0.7487839709166375 F F F
0.6274979902336961 0.6272348247436997 0.9971210799003800 F F F
0.6301231481726814 0.5024893201733808 0.1222077054157772 F F F
0.5026284098392171 0.6303121645540907 0.1219923285833364 F F F
0.7508107359107752 0.5019433742966461 0.9971380469838401 F F F
0.8731849730826552 0.6265638967863922 0.9971419266308795 F F F
0.8733982463345198 0.5020389326907052 0.1224389114899224 F F F
0.7508757258148359 0.6265275270564686 0.1227661718133729 F F F
0.9978074754396336 0.7496638104109664 0.9968735902799043 F F F
0.1234345325856443 0.8696486287717378 0.9967222429660206 F F F
0.1232243721111379 0.7484906295185090 0.1224009081589378 F F F
0.9969726719940998 0.8696601172166629 0.1226987858213344 F F F
0.2501996681918737 0.7500293716835177 0.9963587195492373 F F F
0.3779322967212722 0.8703661633256478 0.9955252015440608 F F F
0.3766063920576030 0.7506064995482922 0.1221213989567017 F F F
0.2493772099295140 0.8677750717454518 0.1233466025040841 F F F
0.5018525641363770 0.7494615267322141 0.9966374383885643 F F F
0.6262632524762831 0.8736828078959755 0.9972845034465021 F F F
0.6274001048213302 0.7500965857290354 0.1225756999026179 F F F
0.5043745613672663 0.8709156421503966 0.1224274274955548 F F F
0.7496053592882320 0.7499589288132028 0.9976098228494669 F F F
0.8720198811716884 0.8722377239422523 0.9974512305200504 F F F
0.8728395054491188 0.7494896755718907 0.1228461797803308 F F F
0.7494919858076962 0.8730010044360410 0.1227402919259817 F F F
0.9980976432626192 0.8720851879458760 0.8715941871848959 F F F
0.1235872060298987 0.7496453298709994 0.8716996000201577 F F F
0.1237010716168458 0.8733702186157632 0.7478302343214671 F F F
0.9946546864725760 0.1219910629911747 0.3780523905345923 F F F
0.2486463745697230 0.9912675425493800 0.2483998708941543 F F F
0.3775339779627039 0.1239802052608917 0.2475574684053618 F F F
0.9983850822070117 0.7503257194809414 0.7488514753218215 F F F
0.7504937183673742 0.6262526046607386 0.8730786967641930 F F F
0.5061200075124129 0.9945091146662411 0.2493649761761246 F F F
0.6318127751237889 0.1238783802182594 0.2488320660792025 F F F
0.6294044467462582 0.9966934711458592 0.3746019873746084 F F F
0.8733603375290520 0.5014828527230976 0.8720613876250346 F F F
0.7503936359757285 0.9973561353626657 0.2490651470250602 F F F
0.8680644695911233 0.1231814593016637 0.2492972810736479 F F F
0.8716993073245090 0.9971092630827172 0.3768028873084956 F F F
0.7494905259670684 0.1231973120412688 0.3760877190702500 F F F
0.8737686556588963 0.6263404527049837 0.7491860521844586 F F F
0.7497233065945919 0.5017168586013596 0.7489362070457417 F F F
0.1236400004639285 0.2474076188736259 0.3775266330092346 F F F
0.9922107104047375 0.3783371730133744 0.3743724512886432 F F F
0.5014734724334110 0.6268870203861162 0.8721358823541404 F F F
0.6277925437417067 0.5017291041363443 0.8719207822971788 F F F
0.6261560854553837 0.6265168066201370 0.7488725145830020 F F F
0.2523345160132200 0.3757464709074760 0.3795095266457137 F F F
0.5074528570004700 0.2514698138551972 0.2474660181112778 F F F
0.6309702468734179 0.3763030632867100 0.2487118639013971 F F F
0.6318333814854330 0.2509082433273721 0.3759095627434302 F F F
0.5020434725227970 0.5025062574090041 0.7483675528960039 F F F
0.7514474846044119 0.2508229432071258 0.2485410650056926 F F F
0.8706828311333895 0.3780298049510114 0.2487590660604186 F F F
0.8685482297119620 0.2495079245038682 0.3759544098514256 F F F
0.7498986931513917 0.3770794660921533 0.3752736857663265 F F F
0.9949128644949405 0.5041619798093863 0.2499283595021244 F F F
0.1216308573162432 0.6305126655205410 0.2499856117427666 F F F
0.1212455131713351 0.5073034548025794 0.3744335231541375 F F F
0.9967324204038289 0.6286452496319307 0.3740691043128919 F F F
0.2497348035373588 0.6272563916020824 0.8713982764285813 F F F
0.3772290938027826 0.6314142780189649 0.2492784833330761 F F F
0.3784576203776399 0.5056735165586942 0.3791660394564706 F F F
0.2506820672030474 0.6320212467877731 0.3770120198883353 F F F
0.3747594902686532 0.5022942398892649 0.8703320601303091 F F F
0.6286862078837827 0.6284748101323121 0.2489703097941092 F F F
0.6295190746451990 0.5035140768928164 0.3764711446144936 F F F
0.5030727197567056 0.6283449058606794 0.3768844454482525 F F F
0.7501277299869146 0.5024277253258448 0.2488636178311512 F F F
0.8728967222874403 0.6269161727117859 0.2487851008624605 F F F
0.8710081361628482 0.5032354221886964 0.3743565253197545 F F F
0.7502052072363755 0.6271351669883045 0.3749165419449164 F F F
0.9972880229957291 0.7501448096908732 0.2492160183479815 F F F
0.1236559343469425 0.8688585000416638 0.2490062749660370 F F F
0.1228344493644786 0.7503630998286840 0.3757228332301834 F F F
0.9967874070494435 0.8709250881398284 0.3762187913884812 F F F
0.2494178718989213 0.7483619260542586 0.2488512297770150 F F F
0.3765143434716218 0.8678609860892037 0.2491081874322771 F F F
0.3769947808397821 0.7504493577977931 0.3761798394345472 F F F
0.2490527076044150 0.8683220439499845 0.3763678397159996 F F F
0.5029936506036828 0.7493249236544881 0.2492024916586851 F F F
0.6278252959911416 0.8721666877256201 0.2492117894955506 F F F
0.6271518789333315 0.7498194614089123 0.3751866875169821 F F F
0.5032921304446707 0.8707008692985418 0.3745435762087511 F F F
0.7503426173725425 0.7497811104342910 0.2488575542836108 F F F
0.8717842162013891 0.8719583908077042 0.2488976794802020 F F F
0.8730098662643438 0.7499835721332903 0.3748044857301595 F F F
0.7504058434475058 0.8728874975793248 0.3750785965877145 F F F
0.7498704703051676 0.8738062362833494 0.8730819230335889 F F F
0.1231278480747414 0.1229481833038131 0.5057660288419332 F F F
0.1234745368953008 0.9979289998347749 0.6266772299552611 F F F
0.9974540071821528 0.1225954505449904 0.6268572231145861 F F F
0.2494507014689363 0.9957952821069820 0.5058216431217910 F F F
0.3750630070674252 0.1244426935635468 0.5084679427846720 F F F
0.3748368009283993 0.9975626600282692 0.6279132505455507 F F F
0.2493403095443770 0.1231297104640879 0.6275799223374422 F F F
0.3762583613232201 0.6265120321763833 0.7490145500432083 F F F
0.6299772126447071 0.1248445113137667 0.5030135505291098 F F F
0.6276492142345769 0.9983778033633933 0.6269061126741292 F F F
0.5022713907079217 0.1251726711898654 0.6279389182912067 F F F
0.7500838134032223 0.9977221985189427 0.5010720242812319 F F F
0.8715348928825086 0.1222330401300569 0.5016544291301830 F F F
0.8732356206252717 0.9982926653872198 0.6253029942881543 F F F
0.7502248230362745 0.1238721086339322 0.6261266076177144 F F F
0.2501965015967330 0.5016514831713903 0.7493286978715138 F F F
0.9983172493654302 0.6265573910451010 0.8720333125091965 F F F
0.1241145615923731 0.2486801485103241 0.6285714230039652 F F F
0.9968590461982189 0.3755399044330668 0.6295348733330524 F F F
0.2499069157659982 0.2497177259151820 0.5066103097860668 F F F
0.3770061967498591 0.3771773919453044 0.5061243132139028 F F F
0.3764253302397330 0.2504858773570658 0.6274700260253172 F F F
0.2511361912053546 0.3758177212883856 0.6288040600123340 F F F
0.5044195547215048 0.2504292798568120 0.5062763177496540 F F F
0.6292504582939792 0.3769149962692042 0.5030638953162474 F F F
0.6275316678562702 0.2504910148975778 0.6269777684628594 F F F
0.5025752969758804 0.3767490963487386 0.6266068757766246 F F F
0.7510340026989167 0.2502656635498392 0.5020504794216191 F F F
0.8706743714462241 0.3768799852817601 0.5010393499195728 F F F
0.8724438876816435 0.2496632047964879 0.6273009844925254 F F F
0.7499282831789184 0.3763229841829708 0.6263184847346761 F F F
0.1228651812964428 0.5037248359895694 0.8702066570854604 F F F
0.1231702368788081 0.6296682304152653 0.5010719812312942 F F F
0.1244040311011763 0.5027723581424088 0.6298857487248921 F F F
0.9984636633317586 0.6277410202489625 0.6268697679485749 F F F
0.1239423153990089 0.6271454507090611 0.7493716118523295 F F F
0.3779244005364281 0.6287770274395487 0.5020549175381126 F F F
0.3775884443141722 0.5027743920902312 0.6269859442230074 F F F
0.2504346165682034 0.6280892946834050 0.6271409719672678 F F F
0.5029377560621168 0.5033310935048341 0.5031501252446743 F F F
0.6268362560987802 0.6267580643928461 0.5008179122339561 F F F
0.6267141472441353 0.5018978513712937 0.6256635073304595 F F F
0.5017748058157896 0.6269730661997435 0.6255168974771211 F F F
0.7506282860261171 0.5022541227796540 0.5005903341986560 F F F
0.8725292192386886 0.6275909594806954 0.5001377215761432 F F F
0.8724125046952554 0.5016563270665537 0.6269170451794399 F F F
0.7499790157932186 0.6263618897970651 0.6250798999309340 F F F
0.9976954880952438 0.7496302041559253 0.5005145543036161 F F F
0.1231610071259890 0.8713585742271329 0.5027907333547222 F F F
0.1237910536833265 0.7504569101221015 0.6260162742768518 F F F
0.9982906407939139 0.8734381511614466 0.6255284960351754 F F F
0.2498742870123469 0.7493363857930444 0.5023183133716287 F F F
0.3751729833027435 0.8701885488772788 0.5027926881437729 F F F
0.3763130840296061 0.7499485787294047 0.6261476551027022 F F F
0.2495849988035466 0.8728464806894410 0.6268613610433333 F F F
0.5023247860980818 0.7502093037222167 0.5010833806149069 F F F
0.6277463922847085 0.8723637810206101 0.5007417833463144 F F F
0.6264001828466796 0.7499336746507141 0.6250530790896149 F F F
0.5014884561657735 0.8724125186862769 0.6270014575086863 F F F
0.7500547549073787 0.7500290085136148 0.5002115634970273 F F F
0.8733858979019554 0.8733242668606235 0.5006975916696548 F F F
0.8737422182707043 0.7502585391280041 0.6250935173568981 F F F
0.7502598812530157 0.8738869669158335 0.6252431102486968 F F F
0.9976106235934270 0.9982006992514585 0.7482754852034840 F F F
0.1223797276615554 0.1241086877009843 0.7482418653723083 F F F
0.1222109795603491 0.9964257126870780 0.8678371854858529 F F F
0.9970053013807544 0.1250813151140725 0.8699970956711164 F F F
0.2496035242965967 0.9984672440032120 0.7484768457544826 F F F
0.3758665503616139 0.1236445402494863 0.7472431058781602 F F F
0.3774372114582186 0.9975647665644408 0.8691904152946470 F F F
0.2479017994043056 0.1253387130166664 0.8651279207013093 F F F
0.5020370460729661 0.9981709220324364 0.7477713220131097 F F F
0.6268279898832194 0.1240403251494118 0.7489085326582005 F F F
0.6266652807503897 0.9983639806696166 0.8720908816213243 F F F
0.5023691060771232 0.1231034131623339 0.8694507779579612 F F F
0.7502201871998097 0.9988526074236792 0.7491784361682184 F F F
0.8733727096984464 0.1240696108098015 0.7489271565299239 F F F
0.8725220943172400 0.9985785660602970 0.8718335688131442 F F F
0.7500502361046136 0.1243134023588616 0.8719091328373794 F F F
0.9990245193692522 0.2498514989132438 0.7498816485294865 F F F
0.1232750733772335 0.3757316633282461 0.7493026472956426 F F F
0.1262798039870182 0.2516296957951463 0.8742832265560919 F F F
0.9976689636437215 0.3762233460841085 0.8714885830706713 F F F
0.2487175387114694 0.2502884846406818 0.7469972081428305 F F F
0.3762806801559992 0.3775489022628151 0.7474028022693365 F F F
0.3739299879396376 0.2512583921312161 0.8636103362700019 F F F
0.2474842416619663 0.3758715319183671 0.8686412930437447 F F F
0.5018614952537948 0.2504090033992389 0.7481475183320927 F F F
0.6266334938325245 0.3766069283188025 0.7481692380283008 F F F
0.6283271276904758 0.2506669888531595 0.8701950519147676 F F F
0.5023750694755231 0.3773993540017996 0.8682387789500428 F F F
0.7505821604369202 0.2501098252069309 0.7490473729707606 F F F
0.8732667241246760 0.3760258646470487 0.7498902739397606 F F F
0.8736154522529600 0.2504776552518667 0.8725578931622334 F F F
0.7505968214496467 0.3764061550259744 0.8720905730415751 F F F
0.9978179795361459 0.5018690853645594 0.7493639382604030 F F F
0.2501700567534663 0.5043580222219024 0.5015414181110011 F F F
0.9972746701846679 0.5028547555015520 0.5016330233239210 F F F
0.1239676097045099 0.3756994070669207 0.5012094411127094 F F F
0.9957590351785475 0.2495691754605539 0.5010919053940377 F F F
0.5027309527174868 0.9972795441378679 0.5029679191227696 F F F
0.5036632917191691 0.5051239837267288 0.2478444738875825 F F F
0.2515246776344883 0.5081295031810844 0.2533380593964202 F F F
0.5057262212139672 0.3760672183050094 0.3783044170879346 F F F
0.3771879315535995 0.2492756757779904 0.3790389877489452 F F F
0.3774002436649415 0.3779907006640837 0.2479420380648130 F F F
0.2478690793315518 0.2517243335408971 0.2439075328337099 F F F
0.1234671582251352 0.3770244617919527 0.2517485401759843 F F F
0.9933686596510978 0.2483189817484950 0.2506441145504670 F F F
0.5054951554143529 0.1255660337880283 0.3744587902727770 F F F
0.2500448211294387 0.1228923368349842 0.3775949301290833 F F F
0.3746853137430741 0.9949081373553551 0.3742785570824882 F F F
0.1236818285301021 0.9955117710763136 0.3769391040542240 F F F
0.1217548211809966 0.1262455443484435 0.2407423543946955 F F F
0.9952129788274164 0.9975132981125278 0.2473320788025853 F F F
0.5011832788854500 0.5004699691962514 0.9973956352617839 F F F
0.1218138793497824 0.5073947365428220 0.1209407942932032 F F F
0.5039886758649706 0.2515585428879006 0.9948542234756734 F F F
0.3678658786054035 0.3695392597703215 0.9957876301638148 F F F
0.9966440025120565 0.9964426660405191 0.9976951625970882 F F F
0.9993468269733591 0.3730251459439537 0.1189630799108256 F F F
0.5054271167878305 0.1234981844654742 0.1239331989558607 F F F
0.3784412915402557 0.9930678506945112 0.1242442072795586 F F F
0.3673268704557846 0.1326246149588046 0.9933106570772553 F F F
0.2498500980521132 0.9939535940545989 0.9942064043436784 F F F
0.1236002282540272 0.1208266650047785 0.9969528383140768 F F F
