#comment
1.0
16.184 0.0 0.0 
0.0 16.184 0.0 
0.0 0.0 16.184 
Al Mg Zn 
230 10 15 
selective
Direct
0.0004989379959196 0.0000475800331904 0.5009346002243270 F F F
0.7469375052377343 0.7467087044723465 0.7479639116075517 F F F
0.4988619859894144 0.8739374115663271 0.8736686602687050 F F F
0.6221484875165805 0.7476284487079209 0.8740629088300520 F F F
0.6222423394135758 0.8740164104996426 0.7477998214590971 F F F
0.3776327855507860 0.1274952603371788 0.0000571183859148 F F F
0.3775596999656911 0.0015457617460690 0.1259421196814085 F F F
0.4988484398910822 0.7490587371155355 0.7491818077369925 F F F
0.4991816468457669 0.9997542224993513 0.9991645526835431 F F F
0.6225563192796316 0.1259921731387792 0.9974553847919506 F F F
0.6226222862011217 0.9985403252840559 0.1241180634921104 F F F
0.5006203916535268 0.1263049564508670 0.1254908170875234 F F F
0.2506225929975990 0.8741727350022448 0.8737121253675185 F F F
0.8746908252961175 0.1342680314858365 0.9964288374629579 F F F
0.8745853038006406 0.9943829555469553 0.1227468513721547 F F F
0.3748453867796302 0.7495666353732110 0.8745673741096578 F F F
0.0031566890183256 0.2543359123732383 0.9998759336123259 F F F
0.1269799272518089 0.3764574816974583 0.0004272262552371 F F F
0.3749746605573713 0.8744458573747186 0.7491850765079303 F F F
0.0015941338903634 0.3767972245302196 0.1258099246808084 F F F
0.2504205544547479 0.2492386267792235 0.0011539317096366 F F F
0.3750706868171386 0.3752539602089484 0.0001528435118376 F F F
0.3753718119594269 0.2508743122371500 0.1254590491240298 F F F
0.2504522667566738 0.3752316965188789 0.1254268480457522 F F F
0.5000391740184735 0.2516234954248218 0.9995058308751641 F F F
0.6236753658094025 0.3764757034128628 0.9994601176195068 F F F
0.6227843861091359 0.2527011730566981 0.1253432405243436 F F F
0.4994144607275035 0.3758536321172255 0.1257759618149795 F F F
0.7481132799343266 0.2536342219741091 0.9979951032232430 F F F
0.8749983646877140 0.3767213183536671 0.9992124777913547 F F F
0.8769394412694195 0.2547760040356587 0.1246579761516848 F F F
0.7491854770537680 0.3760342677323644 0.1257358321679443 F F F
0.0008544961611547 0.4986826384155448 0.0003618917045197 F F F
0.1257403943332496 0.6246757778668280 0.0004869616635355 F F F
0.1261873537689477 0.5004050767661755 0.1258715547854901 F F F
0.9998099781708458 0.6234919758936007 0.1261277295316462 F F F
0.2506898753198351 0.5001387360432530 0.0003120361637233 F F F
0.3744998322293462 0.6248098845122833 0.9999041785344750 F F F
0.3748117261964687 0.5001014642972075 0.1257783621208524 F F F
0.2502125403239226 0.6245062050955169 0.1250189370325900 F F F
0.4988411694752287 0.4997339839144567 0.9999666562818003 F F F
0.6228019262825749 0.6234172589832876 0.9998654250084295 F F F
0.6237115917312679 0.4997410351274837 0.1259751280288350 F F F
0.4990823553458431 0.6241702309168510 0.1255735235108422 F F F
0.7487912593390903 0.4990971580753121 0.0001361583928733 F F F
0.8744164934593762 0.6210316091699497 0.0018752509032567 F F F
0.8744763111264129 0.4993948651197350 0.1264949640042917 F F F
0.7484139673728671 0.6234306778883545 0.1261533024258660 F F F
0.2509979188864315 0.7489309095037741 0.7490678717412860 F F F
0.1264902176798663 0.7471300475032153 0.8746426089212258 F F F
0.1283138877916997 0.8738919895107364 0.7478478781268066 F F F
0.9938958740594838 0.8734431520180237 0.1285595630673896 F F F
0.2494191118649944 0.7506880080772397 0.0004932270758538 F F F
0.3753728492147489 0.8748301823466136 0.9998600338633686 F F F
0.3754796061565099 0.7489578134251003 0.1250189413980139 F F F
0.0021159201987378 0.7465706800489480 0.7464145626527617 F F F
0.4988358668487309 0.7493887006641903 0.9996461819333319 F F F
0.6222979756848841 0.8737862639633286 0.9995740587206200 F F F
0.6226933528967683 0.7484239472444826 0.1259332748185423 F F F
0.4993136234884943 0.8742375114214150 0.1255277789999996 F F F
0.7457909578999388 0.7476735756834018 0.0019512890607446 F F F
0.7478426988331981 0.6227164838626817 0.8748904880135088 F F F
0.8723378512877376 0.7460505106249258 0.1268278703699507 F F F
0.7468018041290632 0.8733979979217035 0.1271288601209994 F F F
0.8744764393364088 0.4995381052998003 0.8739035121830347 F F F
0.8744537233051374 0.6232691251127183 0.7485151425366305 F F F
0.1261834589698307 0.0007205317936647 0.3763385638959909 F F F
0.0027481996672533 0.1251969223203890 0.3768887667306016 F F F
0.2526936388329803 0.0029679021131771 0.2493178636788502 F F F
0.3760530703890338 0.1266571193080202 0.2504459411235468 F F F
0.3759118320273290 0.0004261095390350 0.3754327035347025 F F F
0.2506331229821365 0.1258768203582936 0.3754961196620808 F F F
0.4998551671798294 0.9999785651908063 0.2505476694353036 F F F
0.6231574664586194 0.1255790058306894 0.2520241474632699 F F F
0.6237721933632764 0.9999527786940732 0.3767114388442459 F F F
0.4996156636974874 0.1260727353197281 0.3757889215515662 F F F
0.7477720198398339 0.9972634101020713 0.2521759509485045 F F F
0.7490274730225420 0.4995745846397121 0.7487555167676282 F F F
0.8748637499105084 0.9981712564771617 0.3782421980962120 F F F
0.7488771824781644 0.1254680148602628 0.3770385378474007 F F F
0.0038757577735355 0.2518948237343944 0.2499659100565828 F F F
0.1265679221817498 0.3759073173951811 0.2503439366135737 F F F
0.1264911405665509 0.2508296325298148 0.3760166242056533 F F F
0.0007233986568736 0.3755640413106022 0.3757926432345913 F F F
0.2502668422775597 0.2507012550186376 0.2501007769317180 F F F
0.3748111481745304 0.3749857651515262 0.2505128929243206 F F F
0.3750564216466389 0.2507567716371560 0.3750583763348354 F F F
0.2512184781956975 0.3754705567045019 0.3755872230920050 F F F
0.4996049208180627 0.2514902670536266 0.2511014585680746 F F F
0.6241919082699547 0.3756854070323363 0.2512939801929463 F F F
0.6241777124333022 0.2510164263645986 0.3764587247387464 F F F
0.4999061637197014 0.3752420526419643 0.3755224663127577 F F F
0.7485593039783094 0.2529735124492322 0.2524192787619120 F F F
0.8751953682980560 0.3761480984018253 0.2519569705708518 F F F
0.8755504939397460 0.2516101346260424 0.3770755921881055 F F F
0.7493869961773685 0.3756719710495199 0.3765793481890265 F F F
0.0006610630734742 0.5000019358746720 0.2511439836137964 F F F
0.1254859039616565 0.6252478318735215 0.2500820614108983 F F F
0.1258989638463307 0.4998623594008704 0.3752963582442697 F F F
0.0000932171480394 0.6239999891175323 0.3758635625010197 F F F
0.2506434098637576 0.5002345947155507 0.2503804289389478 F F F
0.3754262178448856 0.6241619748006162 0.2506737775859026 F F F
0.3754941833958051 0.4997822606094548 0.3754013385761930 F F F
0.2507621386728050 0.6242645978428036 0.3754540513446487 F F F
0.4995803937473216 0.4998931253672508 0.2509495613940860 F F F
0.6237649251856197 0.6243762635152272 0.2511183189255942 F F F
0.6243640588126361 0.4998635841685631 0.3755631606902581 F F F
0.4995918542243424 0.6247174764457099 0.3755373780085608 F F F
0.7487892417602557 0.4995920749806202 0.2513867483390931 F F F
0.8739481252872972 0.6235321066114340 0.2518687348031866 F F F
0.8743861551579805 0.4995852059468058 0.3762019942915604 F F F
0.7490437623346837 0.6243215466256269 0.3759513474568652 F F F
0.9982902122755571 0.7477349682962754 0.2509656035579177 F F F
0.4985485291501199 0.6240618794216996 0.8740293034932853 F F F
0.1252770020821348 0.7489306732960123 0.3757863316899010 F F F
0.9998207341939069 0.8744486153625928 0.3763878862149186 F F F
0.2521788453845194 0.7475223090850152 0.2499878085114976 F F F
0.3747239063481156 0.8751000760833786 0.2498273304591002 F F F
0.3752703277256218 0.7492771923931569 0.3749932809448707 F F F
0.2515258347028955 0.8747855275651381 0.3757214270680352 F F F
0.4988430300821121 0.7488751775071467 0.2509005452698729 F F F
0.6231298945850913 0.8738020206786912 0.2511385118735901 F F F
0.6239289270895739 0.7487736753479892 0.3758475191804206 F F F
0.4995433070419356 0.8741337216926737 0.3755209870254254 F F F
0.7485240753536155 0.7485587346658999 0.2515633375324040 F F F
0.8731730717920542 0.8736440553515521 0.2529053484220124 F F F
0.8741547975990633 0.7492227798179264 0.3761884042765289 F F F
0.7485658437447447 0.8736229702103840 0.3771566163932323 F F F
0.7420612508446294 0.8700472577595662 0.8719861678120638 F F F
0.1263371958031623 0.1258323056169753 0.5006314503996574 F F F
0.1263407900055011 0.0005104569630506 0.6241889330674658 F F F
0.0006894673300611 0.1268720295650466 0.6241652760864876 F F F
0.2506490886308760 0.0003382140399301 0.4999590546976285 F F F
0.3755645551140441 0.1260944137252129 0.4999744081481043 F F F
0.3751393455394011 0.0000955552551289 0.6244612805180779 F F F
0.2510679905879817 0.1256800701041433 0.6245575940496666 F F F
0.5000547311453938 0.0000107948426911 0.5004660955049549 F F F
0.6246581915089597 0.1258133190280024 0.5010082725984146 F F F
0.6250972761838546 0.0004665187488842 0.6253966137906547 F F F
0.4999182984468992 0.1257981498572066 0.6245458242708831 F F F
0.7491790231490797 0.0001127146233859 0.5010837216860096 F F F
0.8749598802437909 0.1259902132766127 0.4999565117510713 F F F
0.8742069807159205 0.0018676021083843 0.6247031956416087 F F F
0.7497984658619972 0.1263056088866827 0.6250679450064595 F F F
0.0005849653491100 0.2510653567574589 0.5004538550884301 F F F
0.1259831250439098 0.3757007857248961 0.4997796047499854 F F F
0.1264611234022121 0.2516401623362113 0.6243445287837351 F F F
0.0002478166096936 0.3755176243722236 0.6241583586763997 F F F
0.2512513007523707 0.2509660373577936 0.5001836105025759 F F F
0.3757722023943035 0.3751909156745862 0.4999714732060415 F F F
0.3758708389717625 0.2510917474864226 0.6243336363528360 F F F
0.2511482527804176 0.3756690703267906 0.6244461983652075 F F F
0.4999902119543459 0.2510176403040636 0.5000670302422058 F F F
0.6249310926663875 0.3750115846156225 0.5001678140782095 F F F
0.6245269139403247 0.2511005591477847 0.6245932562984173 F F F
0.5001083817725772 0.3753735067114122 0.6246873931022182 F F F
0.7497161504772885 0.2506531679048237 0.5007154433464173 F F F
0.8745342883469766 0.3751431988778352 0.5004559317651447 F F F
0.8747880218014602 0.2503137923839033 0.6254562500034390 F F F
0.7496094264957587 0.3752249725604955 0.6245611404808346 F F F
0.9999570073711141 0.4995215890461077 0.4996594331030884 F F F
0.1260191001641735 0.6242918560878744 0.4998187210991594 F F F
0.1260743615454013 0.4997603039320754 0.6242038392748440 F F F
0.0004769950259858 0.6234165946177932 0.6233382613179941 F F F
0.2507580908525575 0.4998298351937471 0.4998714114552479 F F F
0.3752532030061778 0.6246117224543315 0.4997905388762708 F F F
0.3751802049063540 0.4998955907594221 0.6243014584491579 F F F
0.2505271738724043 0.6248174157435626 0.6245251350451276 F F F
0.4998312829693072 0.5000555939003747 0.4998223603489532 F F F
0.6244440896383378 0.6244279313860960 0.5000873147023820 F F F
0.6245491086409154 0.4996588479731768 0.6245358045461954 F F F
0.4994960649474623 0.6248381119465404 0.6246395184860725 F F F
0.7493486131953679 0.4997499683911023 0.5001020213268866 F F F
0.8740662775032256 0.6243710437374945 0.5001094270550215 F F F
0.8743623313987242 0.4997301889095238 0.6243306884257457 F F F
0.7490287796895151 0.6239342249531051 0.6242640878663884 F F F
0.9998481650068426 0.7491682080509475 0.4999426445946840 F F F
0.1256052890297745 0.8744296287831294 0.4995046085829445 F F F
0.1260740803331383 0.7492461938870506 0.6235965786137505 F F F
0.0008358704764617 0.8751185814552636 0.6232261348907850 F F F
0.2507822572711108 0.7490857281500213 0.4996989130565511 F F F
0.3755346619244759 0.8742227562122814 0.4994568898340099 F F F
0.3751843980699103 0.7488705050409603 0.6243018744687280 F F F
0.2511180752333151 0.8746981296049224 0.6236075336545638 F F F
0.4995743471833226 0.7487110540262674 0.4997123144075107 F F F
0.6239454864221513 0.8741167530642751 0.5002410780026921 F F F
0.6233754292814395 0.7485507984681261 0.6239801464797584 F F F
0.4993298409510911 0.8741882007229395 0.6239488563741767 F F F
0.7488083889886654 0.7487486596435912 0.5004141322895235 F F F
0.8744663400499207 0.8739568288952465 0.5007652671614249 F F F
0.8743729867485515 0.7488745897545672 0.6246177265391802 F F F
0.7479813625314372 0.8747496799810999 0.6241474999393617 F F F
0.6238656397533965 0.4995453070125048 0.8739595609488818 F F F
0.1281849185499233 0.1276407560636436 0.7496198700119400 F F F
0.6233887255477443 0.6238082514683043 0.7490502079113024 F F F
0.0039089730329511 0.1341792388707935 0.8769371572573570 F F F
0.2499266281594782 0.0004582870649439 0.7505884454125868 F F F
0.3756723333928502 0.1262118337502206 0.7488183607612506 F F F
0.3764616264320894 0.0005919634910014 0.8735520967994589 F F F
0.4996532151967729 0.4996611718634866 0.7486725252601529 F F F
0.4990258203191706 0.0000708207735062 0.7486452954912279 F F F
0.6238679648329479 0.1264327074980752 0.7490055109608561 F F F
0.6218269452967515 0.0001982357637611 0.8726286368070550 F F F
0.4994920069444893 0.1263821595058278 0.8735612120937613 F F F
0.7493425254495376 0.0034152609379200 0.7541297165915524 F F F
0.2509677869177086 0.6237932431882920 0.8746129327408596 F F F
0.9359546145743540 0.9927099498987012 0.9315985669915686 T T T
0.3755840203148138 0.4996848116233641 0.8743787065851792 F F F
0.0005495282727415 0.2512833806137838 0.7485225550410827 F F F
0.1258494134147549 0.3758497263932168 0.7492372074094373 F F F
0.1279265820122359 0.2534557158959498 0.8738779825936710 F F F
0.0005136751246822 0.3760881032110397 0.8742862074931319 F F F
0.2518522512989341 0.2515629165584549 0.7491728619787038 F F F
0.3758916930545193 0.3753417294820948 0.7492724459022442 F F F
0.3756757198296127 0.2510764996274304 0.8746946225782514 F F F
0.2519959615288083 0.3759845808946833 0.8746503308056064 F F F
0.4997458261960966 0.2512756822494953 0.7490915505053608 F F F
0.6247364377131328 0.3750318727817794 0.7493244839551308 F F F
0.6247984574779933 0.2510841776692572 0.8735217028131441 F F F
0.4997743859815140 0.3755026810285160 0.8740481618184976 F F F
0.7497577196975355 0.2513069624342699 0.7488777699317656 F F F
0.8745768752358000 0.3757064379600988 0.7487951729049637 F F F
0.8749336006803553 0.2531842037083807 0.8724008237791839 F F F
0.7492566938318715 0.3763233522243104 0.8734229753292281 F F F
0.0002822630663971 0.4992905120109848 0.7488987489955278 F F F
0.1261698841806409 0.6239856991932577 0.7491691968889841 F F F
0.1261680151251811 0.4992658881550718 0.8745440265557928 F F F
0.0019300529634153 0.6214661516851777 0.8751600546945063 F F F
0.2511990825462471 0.4997097860752641 0.7490627591235025 F F F
0.3750797484774632 0.6243452118761988 0.7491482873905888 F F F
0.1264389011958721 0.8743519468111550 0.2460685589920249 F F F
0.8760862242317861 0.7483636328791942 0.8786425768283009 F F F
0.8737408221596032 0.8776203948519355 0.7540933231895479 F F F
0.0063542892411519 0.1174951975892440 0.1175465495922228 F F F
0.0000902099112388 0.0037659651093560 0.7559555802789237 F F F
0.1154937164487218 0.8806177869622340 0.0022078545536459 F F F
0.8774886220251895 0.1238964819534250 0.2514172395275925 F F F
0.2485998981614980 0.0048722693911624 0.0006672493265684 F F F
0.7562376533879259 0.9989302581451294 0.9895933235762799 F F F
0.7487002629145928 0.1255777908448164 0.1241833643549835 F F F
0.1245225138715535 0.7465439767350270 0.1244583554104907 F F F
0.2535161696329917 0.8745799723719140 0.1240102885479447 F F F
0.7502154118678916 0.1286706842818273 0.8720436931043017 F F F
0.0000684496159069 0.7469526577939368 0.0027666127030139 F F F
0.1265759387683280 0.2525209649822032 0.1253492070749923 F F F
0.8720635381886862 0.8663782498411177 0.0077367176523453 F F F
0.0012088119954123 0.9983938289808837 0.2517385583265482 F F F
0.2499527031679133 0.1289775515232510 0.1270963696332724 F F F
0.1262188562888057 0.1253601809492678 0.2518749911805017 F F F
0.1252761345338179 0.0039977258228084 0.8754468217269727 F F F
0.1303119527073525 0.0011439405589581 0.1290973303001881 F F F
0.1277676094196848 0.1285325538754883 0.9967058453180425 F F F
0.2528853537181946 0.1280359541632906 0.8732508216878675 F F F
0.8734282060022924 0.1257252024852458 0.7518126751412114 F F F
0.0076937277138509 0.8642131851528406 0.8675027801299779 F F F
