#comment
1.0
16.184 0.0 0.0 
0.0 16.184 0.0 
0.0 0.0 16.184 
Al Zn 
204 51 
selective
Direct
0.9998305343343646 0.0019998508235103 0.0008474968006201 F F F
0.7499062295331469 0.8749296084920610 0.8737599852775375 F F F
0.8750560379462674 0.7499442211920437 0.8729828245634418 F F F
0.8748906758856254 0.8746480506304508 0.7484124710984382 F F F
0.7501569322565932 0.7497728140147437 0.7481467873050996 F F F
0.5001086210393335 0.8748051425050741 0.8733534843362299 F F F
0.6250948830479500 0.7497002723496100 0.8729563547582261 F F F
0.2513921712964337 0.1258803536135680 0.1246714013963725 F F F
0.6250828161284160 0.8746839772053351 0.7483033375123375 F F F
0.5001432605889421 0.7495173403965716 0.7479640705941943 F F F
0.2500396357453328 0.8749976733279454 0.8733277994668256 F F F
0.4995191370184199 0.1252197073672242 0.1252897743226775 F F F
0.7503021805160170 0.0019433209431085 0.0010735147129945 F F F
0.3748577449581300 0.7495894044028909 0.8730224558169911 F F F
0.3750535127123369 0.8746932682093409 0.7480393027406715 F F F
0.2498715316571941 0.7497372613986586 0.7480817364650861 F F F
0.9996392059630587 0.2506281652161869 0.0039404269259962 F F F
0.9999840033818366 0.8751582636207280 0.8733008733295751 F F F
0.1249204678948708 0.7497510058405310 0.8731684827200787 F F F
0.1248180147462821 0.8748490375127608 0.7487919628895120 F F F
0.9999827177571847 0.7497348531154978 0.7481847850548944 F F F
0.7500313634531567 0.6252477085864636 0.8729025337761022 F F F
0.8749785176331993 0.5000275266034714 0.8735239285713414 F F F
0.2484414051346542 0.3713720161581717 0.1266574981472586 F F F
0.8751911176341355 0.6253396836761582 0.7481107727399985 F F F
0.7500147289699416 0.5002521320541962 0.7481860001819987 F F F
0.5000216812240877 0.6252065919773919 0.8730816161615591 F F F
0.4995217034968260 0.3711748342962012 0.1243756679065116 F F F
0.7501827197524000 0.2500521298766324 0.0024884540975474 F F F
0.6248830823974579 0.5001061891560544 0.8732511948997141 F F F
0.6251438032353388 0.6253364282288342 0.7479662275998769 F F F
0.5000086024917789 0.5003536495460357 0.7482849102919419 F F F
0.9998819928224214 0.4988311323147419 0.9997887898645689 F F F
0.1246403343225581 0.6245675109339908 0.9990082774055024 F F F
0.1252694712979485 0.4974753096783993 0.1261063572943087 F F F
0.9997483409194537 0.6263299560013745 0.1226906748186471 F F F
0.2496685088195959 0.4992415530668589 0.9990857362768086 F F F
0.3750627377109521 0.6250947945732671 0.9977901521564170 F F F
0.3749677670826574 0.4979812521422508 0.1240434509803033 F F F
0.2499750633811834 0.6254822556911235 0.1232881329643080 F F F
0.4998877411185011 0.4990329796102700 0.9988377087640208 F F F
0.6250706393405978 0.6250909691137762 0.9978188447047895 F F F
0.6249828901550222 0.4980519942712137 0.1237982901807169 F F F
0.4998810966747770 0.6247295272698991 0.1234851639870737 F F F
0.7500799919649725 0.4987663739442714 0.9989282166769876 F F F
0.8749035439413947 0.6251479357685414 0.9979563056041691 F F F
0.8747676291761778 0.4977041211284062 0.1237910656516432 F F F
0.7498708935657522 0.6250865968499114 0.1230647623387830 F F F
0.0000472520142767 0.7502057915920570 0.9976854498576354 F F F
0.1251257146741023 0.8758652937915902 0.9988482982867942 F F F
0.1251478889229243 0.7506179638935776 0.1232859895685547 F F F
0.0001154252165183 0.8764691623847749 0.1243050055050020 F F F
0.2497551707530426 0.7496397996668110 0.9979653785329322 F F F
0.3748854419305769 0.8753206198142609 0.9987151599539499 F F F
0.3749046716568677 0.7498418553541665 0.1233322946526053 F F F
0.2501513169839842 0.8773477544965298 0.1237803939930557 F F F
0.5000592683825313 0.7495558897835208 0.9979587242719723 F F F
0.6250511741084779 0.8755221646520848 0.9988831818010596 F F F
0.6248339934377261 0.7498592495759063 0.1231225389620112 F F F
0.4999261258352787 0.8770467952793179 0.1236832489437253 F F F
0.7501142580522321 0.7497528980428314 0.9979125471881564 F F F
0.8750929216810968 0.8754772492024890 0.9987217120727220 F F F
0.8748293389668154 0.7500906800167484 0.1232257902599778 F F F
0.7499305981757649 0.8760630069187186 0.1241531534670963 F F F
0.9999370115216800 0.0037020050052317 0.2494871556672086 F F F
0.2497028968555412 0.6252138154831863 0.8732583627262379 F F F
0.3748869498636064 0.4999182137251771 0.8738322964329035 F F F
0.3750123338156489 0.6252780622736451 0.7480825667577040 F F F
0.2498142784898755 0.5003438600499969 0.7483093712131831 F F F
0.0000238451992782 0.6251873657573999 0.8733357997330954 F F F
0.1249096141563738 0.5000762735480474 0.8738369094590726 F F F
0.1247440935448275 0.6251560398172327 0.7480883356766516 F F F
0.9999916728600282 0.5003556593823545 0.7486693230079804 F F F
0.7500748429110691 0.3748178844680816 0.8744231149554519 F F F
0.8750432276387128 0.2504725516917392 0.8756725382585168 F F F
0.8753061875526689 0.3758532563500190 0.7491312036200296 F F F
0.7496954894802901 0.0032855189877247 0.2493331353767570 F F F
0.7499471898421762 0.2505612193797416 0.7489710825429532 F F F
0.4997950361365794 0.3744654643599474 0.8750209022835982 F F F
0.6248978775639777 0.2498660430552232 0.8756850726585460 F F F
0.9974807350972470 0.2423337011237686 0.2481696032921855 F F F
0.6249152493793816 0.3755534834549743 0.7486526178051786 F F F
0.4999653183460092 0.2500139087669283 0.7491431558294618 F F F
0.2497963211027146 0.3745391634839987 0.8751715255180184 F F F
0.3750107270982727 0.2496123904035760 0.8761486387358356 F F F
0.3745443891196191 0.3753510644083517 0.7488268224039855 F F F
0.2497718872903611 0.2502619407724031 0.7493366512430021 F F F
0.0000897562362581 0.3749781945907841 0.8752190172765738 F F F
0.1249484318896735 0.2502526562643804 0.8767110731092098 F F F
0.1248437588112501 0.3756103943073672 0.7492864529437705 F F F
0.0001993884966796 0.2507826744603044 0.7496445434664004 F F F
0.7499634852578713 0.1254131552809896 0.8749592209000845 F F F
0.7504403371516496 0.2497024482203420 0.2495512097808454 F F F
0.8749306648188636 0.0002114240122899 0.8743717547646760 F F F
0.8752137894230131 0.1253432077578181 0.7489562780088612 F F F
0.7501471494963438 0.9994061014092206 0.7486466223785254 F F F
0.9989003308624447 0.5043051424130797 0.2480987588472476 F F F
0.1253865302781120 0.6272005491691542 0.2483927345918030 F F F
0.1261494113393909 0.5060052488934592 0.3750444284092527 F F F
0.9995630176903018 0.6272188387059641 0.3747300061222715 F F F
0.2482709460545856 0.4976922306249201 0.2487890350546473 F F F
0.3741162770092831 0.6244967730137726 0.2485480790878936 F F F
0.3747551463301486 0.4994114147968753 0.3730679452239447 F F F
0.2509636713694945 0.6269078636276847 0.3741946020230609 F F F
0.4998882159070431 0.4980637238134293 0.2488071831117217 F F F
0.6253080204344013 0.6247954220712938 0.2486263527935879 F F F
0.6251686387513812 0.4992919206958588 0.3731207097852540 F F F
0.4999194260583845 0.6251460850654766 0.3734570307328812 F F F
0.7502210020426484 0.4978630071484530 0.2487266094535494 F F F
0.8739409417161528 0.6264412700761579 0.2484748902571778 F F F
0.8766441251598273 0.4985125615742135 0.3737230925820375 F F F
0.7509529144312317 0.6245492270154899 0.3738877597226001 F F F
0.9999694728036687 0.7509913759472486 0.2487680261374596 F F F
0.1251510021439921 0.8770908510275196 0.2487934470985235 F F F
0.1251677097814518 0.7508220039761460 0.3742272786545498 F F F
0.9999405037813347 0.8756749513983333 0.3736232672687667 F F F
0.2503011935642573 0.7507095489153640 0.2484726154805767 F F F
0.3750849752526192 0.8774451883748898 0.2485364391784808 F F F
0.3754198061443828 0.7502834673238498 0.3735907356965834 F F F
0.2501939957686943 0.8761504165341569 0.3731835886066810 F F F
0.4999203904912052 0.7497594612990018 0.2482257616084301 F F F
0.6246362781702430 0.8767050530457998 0.2485773086299263 F F F
0.6250390285963668 0.7496647590521774 0.3739094556110544 F F F
0.5002968053199699 0.8759268621579537 0.3729357008885718 F F F
0.7495323044462556 0.7501614951133042 0.2486336899189008 F F F
0.8748920140921330 0.8764500227402076 0.2489320217166709 F F F
0.8748175150522415 0.7503095946109766 0.3743065194469062 F F F
0.7499276367672237 0.8755319756075644 0.3734452409171302 F F F
0.0000851876604024 0.0006822897759661 0.4981615927332856 F F F
0.1252367043416538 0.1246565417887004 0.4984496267520799 F F F
0.1247747793941873 0.9996685071557939 0.6246446668335585 F F F
0.0001636258914863 0.1262331638013102 0.6236479306861878 F F F
0.2498602240311718 0.0010173328133834 0.4979887374479521 F F F
0.3750175232408636 0.1254389449182292 0.4970903713151901 F F F
0.3748470437613587 0.9998462796815574 0.6238422774510481 F F F
0.2499973461626717 0.1251918425880768 0.6243637681860525 F F F
0.5000773725867137 0.0004249221258256 0.4979693099766174 F F F
0.6249429275297230 0.1253339432941082 0.4971421476226606 F F F
0.6251340605553215 0.9993989770601737 0.6239166225993554 F F F
0.5000540414172167 0.1248531530960258 0.6242634946828700 F F F
0.7501028979204375 0.0005213592262240 0.4977702518643647 F F F
0.8746605097411158 0.1252590961889863 0.4979911166611324 F F F
0.8752422708925842 0.9998947370348443 0.6242039233848061 F F F
0.7496225287278783 0.1246881671296166 0.6246111674628562 F F F
0.9996558969523566 0.2516763300312103 0.4954879373815770 F F F
0.1229698661304008 0.3746070056107616 0.4938539234118443 F F F
0.1248109342777240 0.2510061073739410 0.6241759860816386 F F F
0.0002848909163544 0.3755989227793368 0.6238185983471677 F F F
0.2506264312960899 0.2505103040351379 0.4976480324209119 F F F
0.3745647380586432 0.3744030905882211 0.4975626004405007 F F F
0.3749264670460445 0.2502138723855300 0.6243375268166009 F F F
0.2488524008892311 0.3754177978542094 0.6235650946476119 F F F
0.4999335255700549 0.2496421073143769 0.4971240804687840 F F F
0.6248693671620502 0.3745646345716031 0.4979183708831290 F F F
0.6251659466187930 0.2503002970397114 0.6242092901764275 F F F
0.4999773779014664 0.3753210098633160 0.6238823751255376 F F F
0.7497991715713181 0.2500705054195017 0.4973900663380503 F F F
0.8770299478743476 0.3747663597785624 0.4967239684144311 F F F
0.8750940325241662 0.2507337934965201 0.6246032122908529 F F F
0.7508779526363679 0.3754809031500676 0.6234904788506778 F F F
0.9998221200940935 0.4985969863318414 0.4969380749168246 F F F
0.1252291843065103 0.6268192268939231 0.5001191690624286 F F F
0.1248443663556823 0.5000307863925485 0.6237887544093715 F F F
0.9999952140761799 0.6247191544145285 0.6232036054274015 F F F
0.2503460459177553 0.4997438521332023 0.4988666426865507 F F F
0.3750971442103979 0.6253508309868612 0.4990884075708909 F F F
0.3748545138914403 0.5003444133438173 0.6239092608155664 F F F
0.2499101939889847 0.6253729728612264 0.6239415546671684 F F F
0.4999255513376527 0.5000943871489856 0.4985203682801989 F F F
0.6252825627989197 0.6251442028325495 0.4985438124699447 F F F
0.6252311675228795 0.5002682983295844 0.6237776755039898 F F F
0.5002832597181144 0.6252692425523499 0.6237914822542253 F F F
0.7500452120734565 0.4997520982473012 0.4984360430011034 F F F
0.8750426844050238 0.6257434747379558 0.4990861463380343 F F F
0.8752198166416929 0.5001892946359885 0.6240366050878683 F F F
0.7500240217047114 0.6253070220816157 0.6239824286678504 F F F
0.0000061219447759 0.7504541102533603 0.4993136148530813 F F F
0.1251078926907396 0.8752219972628359 0.4989915508160904 F F F
0.1248056669671455 0.7501609793009294 0.6244685005825253 F F F
0.9998414139297195 0.8748547395861130 0.6241545873809108 F F F
0.2502002129686966 0.7501598827180318 0.4990468536194350 F F F
0.3751467712247002 0.8753721728120404 0.4984117754741035 F F F
0.3749316078594858 0.7495915535507388 0.6236904009854134 F F F
0.2498532225118438 0.8749819736405841 0.6240588725972965 F F F
0.5000735784387627 0.7497447621056799 0.4987452303738121 F F F
0.6248548313816047 0.8750199520380681 0.4985196958742522 F F F
0.6252014266444024 0.7496508204853864 0.6235810676014358 F F F
0.5000178642297570 0.8746067830730281 0.6238626110274259 F F F
0.7500640860953481 0.7495755457647550 0.4987028700783077 F F F
0.8748942489184751 0.8750261561105698 0.4989264559641103 F F F
0.8752235827926088 0.7496654946956645 0.6239922098188527 F F F
0.7501775766006867 0.8744821113462634 0.6238052425982576 F F F
0.9999648093269394 0.9997796591275169 0.7488587389472374 F F F
0.1249861982107475 0.1254180032632345 0.7493203162769615 F F F
0.1251295461626168 0.0004752872032033 0.8746992401619398 F F F
0.0000541074878822 0.1259482789809214 0.8756926791632514 F F F
0.2499355619117312 0.9994514633654266 0.7487065784395500 F F F
0.3749757895458697 0.1248775603055196 0.7493032326173338 F F F
0.3750236073639897 0.9999083217432012 0.8742108272030751 F F F
0.2499519163162878 0.1249939653622970 0.8762353773967677 F F F
0.5000032604946605 0.9995488024532028 0.7483732006787259 F F F
0.6247106968679530 0.1248654705909104 0.7489944153648749 F F F
0.6251059996900651 0.0001394587256309 0.8742141838149405 F F F
0.5000768050680156 0.1247627968694109 0.8761316125733094 F F F
0.8768141726837128 0.2527551162139151 0.3742815243522341 F F F
0.8795768751136394 0.3742720513611590 0.2532350439043733 F F F
0.4996723385307982 0.3740949324703227 0.3729711020567970 F F F
0.6246529278807839 0.2501149119039126 0.3729173439493281 F F F
0.6248004256321039 0.3731860788956695 0.2496926804640915 F F F
0.4994775533785675 0.2492887592493322 0.2506759579373888 F F F
0.2462410447587030 0.3745797751555910 0.3702538056120913 F F F
0.3747209553231434 0.2500645766922295 0.3726356183206540 F F F
0.3736849818610008 0.3724337633854898 0.2501419990884376 F F F
0.2475978402425873 0.2512941175877735 0.2499630581453860 F F F
0.7508987889482224 0.3746747240764892 0.3736965348255563 F F F
0.1273636038676694 0.2427354359790743 0.3753501025362980 F F F
0.0648055754340477 0.3723267026136437 0.3123259181594202 T T T
0.7507153361225785 0.1263134821037615 0.3738795995347454 F F F
0.8751320241687585 0.0009951780340877 0.3736804277886762 F F F
0.8731972408455196 0.1250516663245017 0.2498824169853815 F F F
0.4999067352194200 0.1247611340432724 0.3728410461810447 F F F
0.6249434939648751 0.0009699725752131 0.3731949165753609 F F F
0.6241739990422228 0.1255881505413709 0.2501167178069751 F F F
0.4999623282289916 0.0016985642423797 0.2498539743864780 F F F
0.2510927089394265 0.1247624718687199 0.3727426307171337 F F F
0.3752256076637495 0.0006533743113339 0.3730137452195653 F F F
0.3744053908034297 0.1257267933550019 0.2501952530415122 F F F
0.2498116414617157 0.0020007559662064 0.2499450997528243 F F F
0.9992471170936508 0.1244859322436590 0.3749308566421768 F F F
0.1252149657278269 0.0007401243097051 0.3736223215604301 F F F
0.1266698089229190 0.1252887081929012 0.2493909503631699 F F F
0.7502799102695755 0.3742584954564075 0.1255227534309039 F F F
0.8739815908869418 0.2512987004858988 0.1252277018032160 F F F
0.8757323633001548 0.3745902104878979 0.0010648555335600 F F F
0.6247970466527498 0.2492085924676179 0.1254386725684235 F F F
0.6248945675843397 0.3738689833057226 0.0001244228589678 F F F
0.5001435747821267 0.2494622465674478 0.9999760721010323 F F F
0.3754931565486623 0.2483048959173797 0.1245433243036784 F F F
0.3737681620815708 0.3734436995407882 0.0007276129789222 F F F
0.2501295934517249 0.2493781727813065 0.0000118354564975 F F F
0.0034005617617292 0.3745590527521186 0.1300558149632915 F F F
0.1255442285221519 0.2517663307482955 0.1284923510876406 F F F
0.1248100266342634 0.3740126748868380 0.0018612410357383 F F F
0.7492605520260817 0.1254700853266853 0.1249421826051272 F F F
0.8750726695228913 0.0020932178586710 0.1251253294990585 F F F
0.8748016594174637 0.1257822366650973 0.0012742889588121 F F F
0.6246118789346058 0.0016051477991559 0.1245698415092514 F F F
0.6247838603864962 0.1249726432046908 0.0009918181114372 F F F
0.5005209426352459 0.9997315231826257 0.9992386437460461 F F F
0.3749060274012185 0.0012071679251077 0.1243199539077921 F F F
0.3757433215247605 0.1234418276626376 0.9997379941414098 F F F
0.2496986122520010 0.0004685718113447 0.9997078039185462 F F F
0.0001258753252416 0.1249144446879556 0.1240051492441599 F F F
0.1253889187894514 0.0025457215013084 0.1249574810335829 F F F
0.1252279154174357 0.1264941576073680 0.0023048327142064 F F F
