#comment
1.0
16.184 0.0 0.0 
0.0 16.184 0.0 
0.0 0.0 16.184 
Al Mg Zn 
235 10 10 
selective
Direct
0.0005042298056938 0.0001938619022611 0.4990496242785573 F F F
0.8738479601298710 0.7451866950800996 0.8734385780288940 F F F
0.1228901052482354 0.9927616451925867 0.1239989628150060 F F F
0.7480023922260958 0.7491067258820540 0.7493239992096218 F F F
0.2519609222223159 0.9977369042166327 0.0011668055347865 F F F
0.3752782372251685 0.1252921693050658 0.9992571241322517 F F F
0.3766953714418277 0.9994180090204569 0.1251280661433157 F F F
0.2547007060676871 0.1249642065077410 0.1248655010392746 F F F
0.4996263184989956 0.0002892961374553 0.9997306013670091 F F F
0.6237427215701551 0.1263631043487533 0.9999894694107589 F F F
0.6243985408843916 0.0003347542268710 0.1251819816166782 F F F
0.4997215274282931 0.1255620603426525 0.1251278715651807 F F F
0.7488299650905685 0.0028071409856261 0.9928908981028662 F F F
0.8690960485561265 0.1371342257162685 0.9889890658765662 F F F
0.9287806540198992 0.0028907069746472 0.0519996391991304 T T T
0.4993910474205725 0.8744225133317695 0.8744738030418570 F F F
0.6238973445262062 0.7496881988127677 0.8743860756674258 F F F
0.1271756938597446 0.3781013794465174 0.0003040360407846 F F F
0.6231145208873321 0.8741655964663378 0.7488953311068467 F F F
0.9993814079533535 0.3804397195919934 0.1277852988227476 F F F
0.2507764625515866 0.2513621902618702 0.9993686864766868 F F F
0.3753293687363020 0.3757604130780762 0.9998997889112355 F F F
0.3762223011116971 0.2513421493947138 0.1249417155648462 F F F
0.2515041084925574 0.3766783367496592 0.1249562828315342 F F F
0.4992762332265058 0.2507411110982768 0.9998238322630706 F F F
0.6227686082655723 0.3766239507376948 0.0000523369798978 F F F
0.6248541146712848 0.2500016348850311 0.1256599610896737 F F F
0.4997976732579481 0.3754158426945919 0.1253820200446228 F F F
0.7463394525449975 0.2538168272609406 0.9997380197124219 F F F
0.8716455265493207 0.3793926113060176 0.0001943771561110 F F F
0.4990207622060036 0.7495551003138380 0.7493791425202826 F F F
0.7478366566287209 0.3762793927092032 0.1258345869963174 F F F
0.9997938167634441 0.5001928806213845 0.0001637655870526 F F F
0.1265256916547425 0.6228895763307595 0.9996777868958194 F F F
0.1262027573494730 0.5012080111655768 0.1259533724677855 F F F
0.0000087699122513 0.6231475515684912 0.1262690990786783 F F F
0.2514091067523673 0.5005511426465969 0.9997452071701063 F F F
0.3757705940769872 0.6249361351881199 0.0001975317913779 F F F
0.3760487380725739 0.5004570950727741 0.1254148487279486 F F F
0.2517595348172502 0.6242771735246239 0.1253573211078814 F F F
0.4991374663971693 0.5005137825328924 0.0000749013419599 F F F
0.6232045096634191 0.6249064020310809 0.0001527929484311 F F F
0.6235013646875869 0.5005467997411654 0.1257117528334479 F F F
0.5000758965544450 0.6256945243446519 0.1255471972742160 F F F
0.7476339391660396 0.5007261695883460 0.0002606545143202 F F F
0.8734783500037362 0.6222970096094963 0.9996825625944991 F F F
0.8728961829820406 0.5013180509531533 0.1262537886802511 F F F
0.7475759845068333 0.6241795267435195 0.1255850303300669 F F F
0.0010920879925296 0.7424493715548092 0.9989225195103378 F F F
0.1262893539872270 0.8692829962028967 0.0002953827406325 F F F
0.1270795179995333 0.7462515490720278 0.1259511666834665 F F F
0.2512122789921261 0.8719769076019962 0.8746585265057406 F F F
0.2508240993018716 0.7481851449778898 0.9996555426780734 F F F
0.3762068420959993 0.8738460619036121 0.0002616553818080 F F F
0.3758525725665167 0.7494764538479072 0.1253551990303875 F F F
0.2515144130693441 0.8728293365021036 0.1256339790958431 F F F
0.4999549190213422 0.7499765435565172 0.0000492282402313 F F F
0.6245123123177699 0.8751334089512938 0.9998188713783746 F F F
0.6261467435095389 0.7514434435445739 0.1252019993598665 F F F
0.5002529245669836 0.8746041835643359 0.1253586705561022 F F F
0.7484278056317860 0.7479308199089498 0.9995510648537909 F F F
0.3752484771960906 0.7493558161753784 0.8746459220079272 F F F
0.8727398838096324 0.7427774680485328 0.1266088323628220 F F F
0.3752133084207606 0.8739619207002626 0.7491625083315021 F F F
0.9930393018432341 0.0002430641256168 0.2462507777032487 F F F
0.2504845843072800 0.7489941925939717 0.7490767383921524 F F F
0.1231159539286959 0.9999868792727098 0.3738553088870631 F F F
0.9988291983082948 0.1260313191895409 0.3759483422770722 F F F
0.2511795516189458 0.9986336172305234 0.2494779008465880 F F F
0.3757176521445580 0.1256376341559125 0.2503012056717543 F F F
0.3750123698808830 0.9999831556980037 0.3747695576261454 F F F
0.2501377339157489 0.1256222632532362 0.3743849559363857 F F F
0.4998457953004594 0.0000265961832558 0.2505672624459879 F F F
0.6244896684807357 0.1259336092580716 0.2506601703290577 F F F
0.6237874012231007 0.0000074101072873 0.3762215638217621 F F F
0.4997970694247079 0.1257206959901306 0.3750964486368537 F F F
0.7504174836687388 0.9993252500885339 0.2575008922830940 F F F
0.0011351440294149 0.8676770326811523 0.8786991810164783 F F F
0.8751772002063583 0.0004140449729462 0.3781573815832108 F F F
0.7484017333685689 0.1266583177224252 0.3766004139274872 F F F
0.9970261070166871 0.2541275938109600 0.2499557212733572 F F F
0.1254751490628823 0.3760487358946175 0.2506638629483061 F F F
0.1244982124508833 0.2514696588872612 0.3753254693527770 F F F
0.9993835767605617 0.3766701007695593 0.3757107735185414 F F F
0.2518325378292914 0.2521092995517735 0.2498500570471711 F F F
0.3752525995561308 0.3761748201949406 0.2501143745206167 F F F
0.3752103250892339 0.2514266887065763 0.3749850592975058 F F F
0.2501676783239178 0.3760805734671901 0.3750412394031349 F F F
0.4996177578555164 0.2509682281900906 0.2502166188151130 F F F
0.6238376452245528 0.3758925824668075 0.2505770146558646 F F F
0.6237787671537636 0.2514471446140081 0.3757404205214057 F F F
0.4992503060863694 0.3759265575687269 0.3752035430713465 F F F
0.7490745450093773 0.2517152925167651 0.2512057270981896 F F F
0.8729613373019044 0.3770581755903957 0.2511984778895881 F F F
0.8736963020638280 0.2514774164927735 0.3757091120638448 F F F
0.7485311780047944 0.3758413678811027 0.3753176725828472 F F F
0.9995627987544446 0.5010478865482483 0.2518213116116435 F F F
0.1261493531330861 0.6239342804716378 0.2512183641620590 F F F
0.1253356861292449 0.5006077816877351 0.3757673711672846 F F F
0.9995366003752043 0.6245347188052329 0.3770527068204367 F F F
0.2510290440224422 0.5001669115566819 0.2505524921335706 F F F
0.3753657790275910 0.6250203338568218 0.2503806591231263 F F F
0.3747636600708322 0.5003468598251496 0.3751967700934098 F F F
0.2506669378777719 0.6250433993233731 0.3755424280349673 F F F
0.4995035422557310 0.5005727574371523 0.2506890395893741 F F F
0.6239620711792010 0.6256503418036102 0.2503723719522023 F F F
0.6241873044895990 0.5004243052110717 0.3751445468645797 F F F
0.4993807143819967 0.6254303444583303 0.3753307963351264 F F F
0.7479914655309992 0.5003721319861058 0.2510113471853772 F F F
0.8733457624615523 0.6235257468723255 0.2522285259753395 F F F
0.8732500909637865 0.5002579364399465 0.3759023501889536 F F F
0.7483197894687231 0.6253347891986160 0.3756696242790815 F F F
0.0002877843347360 0.7460813165169782 0.2532903252750686 F F F
0.1253030919784053 0.8734598037078826 0.2518760750185258 F F F
0.1259264769369471 0.7492176472401038 0.3765955405212248 F F F
0.0006022003181574 0.8745060695426761 0.3766892713363273 F F F
0.2511926043517145 0.7490716138555177 0.2508634483773850 F F F
0.3755615975534266 0.8744324302890029 0.2501357030835500 F F F
0.3749930500116195 0.7500968040598446 0.3750212987820526 F F F
0.2504050110489260 0.8746850727671988 0.3751337760178306 F F F
0.4997825980388660 0.7499138372665267 0.2503205815588276 F F F
0.6249030964338371 0.8745503365280918 0.2507399206788837 F F F
0.6237764336893590 0.7498495388753413 0.3758135842334817 F F F
0.4994932340183784 0.8747410254394039 0.3750869874899641 F F F
0.7485314242045361 0.7492740050464503 0.2514432661688678 F F F
0.8750477159392112 0.8730839133194224 0.2570047136025587 F F F
0.8737968945096212 0.7490135630155536 0.3768560132331137 F F F
0.7486377058489264 0.8737279652526128 0.3777802778879546 F F F
0.7475441347503451 0.8746339026280027 0.8748460020375970 F F F
0.1255811846341854 0.1255578491920729 0.4987606077250086 F F F
0.1262205053499583 0.9991864643380327 0.6242062468086543 F F F
0.0006303097245520 0.1266247940299003 0.6207322676636337 F F F
0.2499742761733165 0.9999883335498542 0.4987603230534692 F F F
0.3745041339647971 0.1260036962602006 0.4989143501368606 F F F
0.3744644652387527 0.0001418404955057 0.6237067834104026 F F F
0.2511006657108134 0.1259966221350087 0.6231009540293668 F F F
0.4985932486609889 0.9999914887799973 0.4996083985491175 F F F
0.6232580275827111 0.1258563098177991 0.4997165838855749 F F F
0.6227996893396752 0.9999893039677406 0.6240120754559867 F F F
0.4981645520674073 0.1260391180023432 0.6239832482969108 F F F
0.7481332993272442 0.0000709207669484 0.4994436626922145 F F F
0.8738432099145981 0.1264264061350849 0.4998318525565171 F F F
0.8744443570219500 0.0000712667428746 0.6204438988336225 F F F
0.7472097132141522 0.1259745481586284 0.6228050580106490 F F F
0.9993614689783927 0.2516347206544622 0.4986158083945130 F F F
0.1254117288593824 0.3762792454609261 0.4992866495946557 F F F
0.1254447726189619 0.2524995932316903 0.6229539995843112 F F F
0.0000532534518559 0.3770158789460998 0.6235962182055305 F F F
0.2500926704325708 0.2514519812929639 0.4990827386146344 F F F
0.3746308750264498 0.3759167612991574 0.4993970162390354 F F F
0.3748149932380375 0.2515060093447496 0.6239882757438807 F F F
0.2502673165825129 0.3762391328970670 0.6242808531054929 F F F
0.4991072789406815 0.2513123829886864 0.4994685641572080 F F F
0.6237192363442720 0.3763794845362644 0.4995216192970318 F F F
0.6228639945398292 0.2518251906581727 0.6237500799957192 F F F
0.4987770752393026 0.3758502939455519 0.6244379116243224 F F F
0.7483990166771141 0.2517160372271559 0.4996029145118373 F F F
0.8733889521474715 0.3764609293646439 0.4996879026388861 F F F
0.8740253292421611 0.2524096156328500 0.6229864787469531 F F F
0.7479462721902866 0.3766290081520908 0.6240427589133493 F F F
0.9994221639165378 0.5005405738333282 0.5001780826469504 F F F
0.1255668472437776 0.6249767325990276 0.5002066111243137 F F F
0.1258025584435023 0.5005833106103342 0.6245675128574527 F F F
0.0001095859838071 0.6248628733157622 0.6241215073715041 F F F
0.2505229949336246 0.5006333322518828 0.4996665110193393 F F F
0.3748816589185268 0.6254333521863503 0.4995417098225699 F F F
0.3747467380191237 0.5003388914388273 0.6243739760340404 F F F
0.2502298357314839 0.6250330660406543 0.6244867600479146 F F F
0.4989925619628516 0.5005224123052926 0.4998153340719533 F F F
0.6239281850276246 0.6254137294091864 0.4998677508864695 F F F
0.6235191103831265 0.5005675905367615 0.6245804695441903 F F F
0.4988298354302133 0.6252066053137881 0.6246319534035394 F F F
0.7479281520121275 0.5005509397084481 0.4998035058678822 F F F
0.8733702921008838 0.6247745618950227 0.5002193990850514 F F F
0.8734045192261799 0.5008858333682566 0.6236482305560725 F F F
0.7480665610993411 0.6248696243299218 0.6245166260752492 F F F
0.9999653719701139 0.7498816875935426 0.4999590209325261 F F F
0.1260176548872250 0.8750521566577778 0.4994367268814451 F F F
0.1259180792359522 0.7496055984801374 0.6243931080604250 F F F
0.0021858913611006 0.8742126935337964 0.6232457561809610 F F F
0.2506112343201301 0.7497796010382207 0.5000281331355103 F F F
0.3747158368562608 0.8745073346488198 0.4995480652317770 F F F
0.3746331665040952 0.7496350636233562 0.6245023699771980 F F F
0.2503275858851285 0.8742332690944693 0.6244735547993071 F F F
0.4989357276552715 0.7502006434907166 0.4996634557914428 F F F
0.6234049294420430 0.8744104766719225 0.4999049879750386 F F F
0.6232766754194199 0.7495473886119670 0.6242737951867122 F F F
0.4985698754229215 0.8744669843369536 0.6244688231987786 F F F
0.7483820310655750 0.7493762389426690 0.5003717617427126 F F F
0.8742211629277461 0.8739776193197333 0.5004552045508158 F F F
0.8744202639123075 0.7488263068607537 0.6237413752106051 F F F
0.7476882451427345 0.8744747654293413 0.6236441090666767 F F F
0.0019335969315370 0.7483149116652049 0.7503633917348406 F F F
0.7476859672037554 0.6243962190849719 0.8745918354123684 F F F
0.8733879732416121 0.5008914805906910 0.8739683974199167 F F F
0.9967965751655422 0.1299896929110974 0.8755291406900509 F F F
0.2521719202830783 0.9979775246851296 0.7492342280039515 F F F
0.3737843539883430 0.1255800189780175 0.7498837137589136 F F F
0.3753464855417633 0.9994849569473169 0.8752169176872547 F F F
0.8741007672329052 0.6242081195403110 0.7484045802946374 F F F
0.4980938831612419 0.0000800149893680 0.7488579392919282 F F F
0.6222845407350699 0.1262386158902558 0.7481425151879068 F F F
0.6219561319166740 0.9999756785115590 0.8733278734520165 F F F
0.4994429472758904 0.1255545991675517 0.8742839676673846 F F F
0.7457982540731939 0.9997191799343172 0.7492866246892003 F F F
0.7479389889409184 0.5009615740688985 0.7490384171844550 F F F
0.8796554655697647 0.9989594943560606 0.8802128416620999 F F F
0.7443310484315462 0.1271494121433933 0.8716027393511387 F F F
0.9993690312935493 0.2547435661359436 0.7494738210485017 F F F
0.1255492959687680 0.3758923061731732 0.7494184141621829 F F F
0.4994801251765893 0.6250048110638543 0.8741995933053933 F F F
0.9999872814613264 0.3794095522048869 0.8735306333558959 F F F
0.2519757141828681 0.2530163763892292 0.7495153933840829 F F F
0.3749245360856674 0.3763228433465340 0.7492715178225703 F F F
0.3751023728571465 0.2505276876664043 0.8747514691802409 F F F
0.2507424487932359 0.3764568779097437 0.8745123839363227 F F F
0.4984816682989084 0.2512407872997813 0.7492179034503691 F F F
0.6232234756170544 0.3762773077277934 0.7489975902757117 F F F
0.6227580058362918 0.2517707465439200 0.8740575462407003 F F F
0.4988617541807027 0.3762465646873540 0.8741375406120633 F F F
0.7471835197389775 0.2526657071242014 0.7480176197991221 F F F
0.8732126333198659 0.3781094948075193 0.7475165339462977 F F F
0.8714669615522693 0.2576157196506269 0.8712779614998124 F F F
0.7467526521658997 0.3777407411240361 0.8740042517422850 F F F
0.9998576276696221 0.5007666931653966 0.7485634756448907 F F F
0.1254639485141912 0.6246767531961147 0.7496264745781405 F F F
0.1258851318285792 0.5008331684630812 0.8738336101778708 F F F
0.0001797801553198 0.6229515287284100 0.8740184999304675 F F F
0.2506272536765799 0.5004444431620347 0.7493535423925126 F F F
0.3747035341364387 0.6250053629069598 0.7494446025845809 F F F
0.3750054792897484 0.5002729553416282 0.8744447675999848 F F F
0.2508639817290963 0.6248813502583649 0.8743186090545879 F F F
0.4992039588651235 0.5006367889140571 0.7490580528400052 F F F
0.6239157123079172 0.6253180285810830 0.7494825160918392 F F F
0.6232727393158141 0.5008396388204495 0.8743134330027469 F F F
0.7614070581936169 0.8839426461988037 0.1232282346785699 F F F
0.8749605516801234 0.1236435826571642 0.7488218902144597 F F F
0.1203122595957855 0.1241751830191064 0.0060218070719154 F F F
0.1196976559908203 0.9960265023583638 0.8777301404615634 F F F
0.1253289270857269 0.1274139066022210 0.7514714698019942 F F F
0.8758279022258056 0.8766378277608743 0.7499676654912140 F F F
0.7608032895889534 0.1183351397092504 0.1267953081993422 F F F
0.9986129398061857 0.2556831183412910 0.0036129547802149 F F F
0.9963462354934179 0.8673846391385522 0.1250938480264567 F F F
0.1225149830042946 0.1261714200811825 0.2441589445052000 F F F
0.8744360347558437 0.8625417120520043 0.9935227938926430 F F F
0.8749587619797663 0.1258240511365463 0.2567488720395776 F F F
0.8715213369006450 0.2558844824351905 0.1265340499581034 F F F
0.1275058937638387 0.2559656913934264 0.1258853709537865 F F F
0.1268083254224565 0.7461074125972044 0.8734159684044183 F F F
0.1257517352856444 0.8732198412959540 0.7489893538129664 F F F
0.9886209848478189 0.1310986692239325 0.1306441745994124 F F F
0.0006120019785610 0.9994782249913481 0.7475720305126091 F F F
0.2515248211794641 0.1246961164520908 0.8762816032781992 F F F
0.1260500561576559 0.2543611577929731 0.8755314364565999 F F F
