#comment
1.0
16.184 0.0 0.0 
0.0 16.184 0.0 
0.0 0.0 16.184 
Al Zn 
225 30 
selective
Direct
0.9999394352490310 0.9998138872312827 0.4989750559479699 F F F
0.8745396518686231 0.7500980391692247 0.8732396907120358 F F F
0.1244061220014797 0.0003782870068850 0.1230467421505797 F F F
0.0005566234266486 0.1250829863325907 0.1243294667148109 F F F
0.8745134097060264 0.8747878426830219 0.7488243039217179 F F F
0.7498631922379196 0.7501908783773678 0.7486361497179141 F F F
0.4997919647459839 0.8752077253226690 0.8741105421714078 F F F
0.2481507806285627 0.1235249904648973 0.1312770713588680 F F F
0.4975260725930228 0.0025254850858644 0.0003750355460790 F F F
0.6236862220671038 0.1255319231939631 0.9996898915676938 F F F
0.6250967846564702 0.0002980834790964 0.1239917376137688 F F F
0.6251961225920541 0.7503105875402952 0.8735380640891111 F F F
0.7497905407970382 0.0001546894955643 0.9986869795522615 F F F
0.8746760761558761 0.1249561900650723 0.9989666612639048 F F F
0.8748109103082480 0.0000620987585605 0.1236869774865302 F F F
0.7497867125973454 0.1253325191735386 0.1237578639583335 F F F
0.0005030027542638 0.2503650672335540 0.9995844054881363 F F F
0.1266901130531334 0.3733486718027618 0.0002566126240864 F F F
0.1263445156971732 0.2507399426272439 0.1236755712897411 F F F
0.6252980745672089 0.8747444445768268 0.7492168248597311 F F F
0.5002289778989143 0.7502816739801796 0.7490872094292709 F F F
0.2498866618588456 0.8754666724180653 0.8743805915022592 F F F
0.3765540411737152 0.2519215590695754 0.1313066903985454 F F F
0.2493058024061964 0.3736784538539427 0.1235925733768834 F F F
0.3751619135756635 0.7502711010924830 0.8736710049101361 F F F
0.6248099920933552 0.3748831053669329 0.9988606278246375 F F F
0.6237819286639199 0.2501285154041861 0.1237344478698881 F F F
0.4996810896107100 0.3756494023329392 0.1230487199289871 F F F
0.7496796550953334 0.2499689443977968 0.9988849490142716 F F F
0.8745442823364511 0.3748855690037433 0.9989460429611791 F F F
0.8748212253338206 0.2502499228483056 0.1243045337110605 F F F
0.7494389650799266 0.3751367863313628 0.1239502901049775 F F F
0.0008853216257695 0.4991945760257585 0.9994774585734828 F F F
0.1251743420321155 0.6254997749877587 0.9988504667487658 F F F
0.3750876483396369 0.8757296438771446 0.7498786242401823 F F F
0.9998648861730217 0.6255378471584929 0.1237437987399952 F F F
0.2496940868613952 0.4995552503840350 0.9994685013645510 F F F
0.3750553095833243 0.6253733894457432 0.9987895885112563 F F F
0.3749560151736051 0.4995135986508644 0.1242043870890078 F F F
0.2498046909142116 0.6252325789281187 0.1241546127236755 F F F
0.2500033690582815 0.7501606940334480 0.7488780655058074 F F F
0.6248742772936889 0.6253912269859289 0.9983151728456601 F F F
0.6247888496524169 0.5004818852804269 0.1235975278511870 F F F
0.5000054235006659 0.6252721371133815 0.1234832886947586 F F F
0.7499706192549900 0.5003610808189118 0.9982806992203936 F F F
0.8746822547739522 0.6253590669151156 0.9981782535104607 F F F
0.8745145764141630 0.5001646108206872 0.1237924729289871 F F F
0.7498548883154331 0.6256774587482641 0.1234143082411144 F F F
0.9996998270258196 0.7500747132919651 0.9982369264773107 F F F
0.1252175973234046 0.8752600928400136 0.9987519424266895 F F F
0.1249431712802070 0.7506126220706539 0.1238336765160341 F F F
0.9995986810501271 0.8752811353604976 0.1235923373102649 F F F
0.2501070358687842 0.7503595903112422 0.9986498797071761 F F F
0.3745217517196616 0.8763643171652055 0.9995098079121469 F F F
0.3747514999484701 0.7502890216112759 0.1235158952186115 F F F
0.2499397375812438 0.8762974615555746 0.1236283493622309 F F F
0.4998932302839863 0.7502721148040028 0.9984733814601138 F F F
0.6243257229385634 0.8757109224659214 0.9989390095587395 F F F
0.6253496630902932 0.7502065240587522 0.1232816687059301 F F F
0.4997562963961658 0.8749535515520007 0.1239484015747915 F F F
0.7498802185758704 0.7501414790959001 0.9980348697730367 F F F
0.8746372624905721 0.8751601396383895 0.9983779912224914 F F F
0.8743538562329003 0.7501890437740455 0.1234103698125746 F F F
0.7498467775031658 0.8746636395668155 0.1233176214123527 F F F
0.9995003044974252 0.8749825577263690 0.8738744985050879 F F F
0.1247608435180267 0.7500392058267502 0.8732354229009918 F F F
0.1244061798610800 0.8745455098697682 0.7492009448773826 F F F
0.0001764299549704 0.1250499113920089 0.3731725456249206 F F F
0.2499034651132284 0.9996559776797665 0.2509345604577950 F F F
0.3756662307722258 0.1243896060461746 0.2517096774477046 F F F
0.9994588028669776 0.7497839422863690 0.7486924364126533 F F F
0.7499486426509226 0.6254973386977700 0.8732415041816629 F F F
0.4998988826927390 0.0001680390396817 0.2493392916272793 F F F
0.6240955362655070 0.1251979032698852 0.2484994687339037 F F F
0.6251460946751737 0.9999769096905557 0.3744040510547972 F F F
0.8748451782609784 0.5002747588556660 0.8733860216862529 F F F
0.7496270640715673 0.9998585577524528 0.2489177528903874 F F F
0.8746383885684577 0.1250774307158879 0.2487146018464214 F F F
0.8746142560518518 0.9996893003686769 0.3739974964182388 F F F
0.7501604077941951 0.1248679695106826 0.3741729108952684 F F F
0.8748858559039001 0.6251716115528634 0.7485222219844808 F F F
0.7502463488282138 0.5005690156853682 0.7487466259769645 F F F
0.1251636138054801 0.2501224205185080 0.3727085993219426 F F F
0.0006460275853656 0.3745454768305899 0.3741014661112088 F F F
0.5001425311251076 0.6253401550346888 0.8739540722589441 F F F
0.6250371725988324 0.5005724994428191 0.8738824911695275 F F F
0.6252384364504535 0.6255356743864843 0.7487780623577156 F F F
0.2499141330812553 0.3748715407215655 0.3726800154804898 F F F
0.5003473994439792 0.2501715300586960 0.2509699868402240 F F F
0.6248746822949627 0.3756466716762562 0.2492222333738024 F F F
0.6258129082070605 0.2500907042413834 0.3743980115450472 F F F
0.5003036532049783 0.5005160655204893 0.7490487993913627 F F F
0.7494605711773232 0.2501409441862217 0.2487977611354307 F F F
0.8749093175071571 0.3748635382218890 0.2489279789603135 F F F
0.8752907339251297 0.2501332464718926 0.3738257562013533 F F F
0.7502435832796062 0.3753851212745748 0.3742889364027536 F F F
0.9997507549864898 0.5002924496394670 0.2488757504603934 F F F
0.1251961049148163 0.6251534302038574 0.2487908342458803 F F F
0.1254918871912121 0.4993905383435824 0.3740299248685607 F F F
0.9999375414148944 0.6250015850781794 0.3743588245899934 F F F
0.2500867599200702 0.6254468307602925 0.8735047875712012 F F F
0.3749847248751633 0.6254081978612946 0.2484492599594570 F F F
0.3749876636499906 0.4998424510157781 0.3730887746687442 F F F
0.2499149545811861 0.6247313152787193 0.3735910401542492 F F F
0.3752275249366719 0.4997501787852837 0.8747436274208090 F F F
0.6252087855769919 0.6254901211011951 0.2488901107258906 F F F
0.6248633095418211 0.5001955763905845 0.3736744908478408 F F F
0.5003289335494446 0.6254573591756928 0.3738906177616692 F F F
0.7501015170529067 0.5005484574366110 0.2490641758783806 F F F
0.8746034810576312 0.6254262826653573 0.2491387140593637 F F F
0.8750583503656213 0.5001013381375684 0.3744226774233596 F F F
0.7499139688327651 0.6255444652352561 0.3742452930354603 F F F
0.9995099639138729 0.7499237663675843 0.2489883635197939 F F F
0.1244150568114306 0.8751942395124863 0.2490960507923376 F F F
0.1246556752827004 0.7497731618005435 0.3741453337444698 F F F
0.9998275491216051 0.8751881514479821 0.3736541763281710 F F F
0.2499246224842443 0.7505833007127873 0.2485942287882292 F F F
0.3748488586124065 0.8759729396556128 0.2483615425971172 F F F
0.3751491595062239 0.7498916815419533 0.3739634869812763 F F F
0.2499211651054608 0.8741973349026477 0.3742581533561972 F F F
0.5001677921768179 0.7504217481301481 0.2488194532655919 F F F
0.6256433525057190 0.8744056199720414 0.2492918665368163 F F F
0.6253610013897082 0.7501460192538850 0.3745124167711474 F F F
0.5000986106636474 0.8749320356317194 0.3743115364374422 F F F
0.7498914921019612 0.7501204524904951 0.2490891636749045 F F F
0.8745655537082997 0.8748024343921280 0.2489251299224937 F F F
0.8745055485157749 0.7500964224591423 0.3742547659186373 F F F
0.7499003301481527 0.8746760013124714 0.3745486414634831 F F F
0.7497244381763003 0.8748448705769687 0.8736231841723592 F F F
0.1251268467748800 0.1249447554813634 0.4980093323626408 F F F
0.1248868437450582 0.9998887053028079 0.6243331945100217 F F F
0.9995205055349629 0.1253441331521235 0.6239566692372461 F F F
0.2500310615494636 0.0002743659796715 0.4983089889627031 F F F
0.3755421391975529 0.1244675709651906 0.4977801639550331 F F F
0.3752454730696290 0.9998869862029636 0.6241276080560383 F F F
0.2500077657490248 0.1250212272328112 0.6236539332350586 F F F
0.3751458149874175 0.6253312779444089 0.7490800309841550 F F F
0.6245934274220661 0.1245365940588236 0.4992926500905872 F F F
0.6250380179208291 0.9999661397846302 0.6247904067066005 F F F
0.5001337832268068 0.1247823291901501 0.6241816249443841 F F F
0.7499301141838189 0.9994949038925829 0.4996291226021550 F F F
0.8745531330356847 0.1249288925343588 0.4989765627511447 F F F
0.8745917266680012 0.9998091476931437 0.6244861936597527 F F F
0.7499427299034624 0.1247836564949859 0.6248473877904599 F F F
0.2499490355245529 0.4992289984355134 0.7497092616605822 F F F
0.9997772762602454 0.6251967985134900 0.8733654347115262 F F F
0.1247166467180962 0.2502638179827662 0.6231292254254950 F F F
0.0002050426351281 0.3749831214304092 0.6233031978804923 F F F
0.2504568638322708 0.2495528701708193 0.4978506289395259 F F F
0.3750879676281240 0.3749088002515745 0.4979561653844214 F F F
0.3749953612219706 0.2499907172323895 0.6236636166443604 F F F
0.2497559249795368 0.3752995238989761 0.6230774240957369 F F F
0.4997402272199254 0.2500041839043198 0.4983474182542582 F F F
0.6252736955252162 0.3753265575623811 0.4991063695515077 F F F
0.6256756184559803 0.2499710584600712 0.6242839927553829 F F F
0.5001447078734793 0.3751216664507643 0.6243255533996066 F F F
0.7502499613311193 0.2499158540693108 0.4994654666689843 F F F
0.8746728084607428 0.3753448606094753 0.4990897687545209 F F F
0.8750226943895976 0.2501430389698610 0.6243268248025250 F F F
0.7499994291473797 0.3755656985290166 0.6243959230312187 F F F
0.1250560809884270 0.5000446046972187 0.8737690476347999 F F F
0.1247017393703077 0.6253530070053105 0.4989583256706969 F F F
0.1250473963002892 0.4998176123208509 0.6232435811717754 F F F
0.9998157855216235 0.6249774112563981 0.6235043235378488 F F F
0.1247485201473846 0.6249800427676574 0.7483893417884814 F F F
0.3751174713904895 0.6254555189618224 0.4987648048637008 F F F
0.3746330015131762 0.5005342640464489 0.6237858772046625 F F F
0.2499218225669171 0.6250123204738260 0.6241168964294131 F F F
0.5002444973787856 0.5000868318662809 0.4988851124838911 F F F
0.6253746051608962 0.6253934774636299 0.4994285505929209 F F F
0.6252918798957516 0.5002844175183937 0.6244608413165136 F F F
0.5002298886758287 0.6254410508648284 0.6243766383441541 F F F
0.7496849021130313 0.5006312342784870 0.4991676206554041 F F F
0.8747202528062497 0.6253099784560042 0.4988316167189698 F F F
0.8750457044712835 0.5002062098241890 0.6235902049452031 F F F
0.7500096869702594 0.6253839788117728 0.6243784318121863 F F F
0.9993974912250974 0.7503535189597120 0.4990991935069979 F F F
0.1247243784484137 0.8747533353009223 0.4990083745936278 F F F
0.1244823236786445 0.7500360837405899 0.6242878090193189 F F F
0.9997530415386274 0.8747464424314121 0.6244642864159095 F F F
0.2500876231238884 0.7498112014266182 0.4992853980439404 F F F
0.3754908733615739 0.8754759656648426 0.4991212977238455 F F F
0.3752887894073487 0.7501550240497457 0.6246247913776234 F F F
0.2500953722447498 0.8743135198612554 0.6241442306171486 F F F
0.5005441532753914 0.7501040231534503 0.4994980813293160 F F F
0.6249834901440307 0.8750724113448590 0.4997619811861985 F F F
0.6251260929935401 0.7503076337778947 0.6243799941720658 F F F
0.5000687532688675 0.8750126642418947 0.6246836072870665 F F F
0.7499750640698435 0.7500988067305123 0.4994428711942408 F F F
0.8746588073019125 0.8746691793378326 0.4994579674731996 F F F
0.8746440959891516 0.7500276489411339 0.6243783499170329 F F F
0.7497321136559929 0.8749274375166449 0.6244273737675249 F F F
0.9995373289609832 0.9997392053103240 0.7492045997803474 F F F
0.1241579318294672 0.1249362197711189 0.7481291118997404 F F F
0.1244988574562559 0.0000060222186243 0.8752576877587357 F F F
0.0002750781648213 0.1248284713072652 0.8749160825471128 F F F
0.2497338585643056 0.9989862784838548 0.7482347696239846 F F F
0.3751878473478076 0.1248915030836141 0.7478481884191528 F F F
0.3748285080873126 0.0023021037840927 0.8763285122133705 F F F
0.2484882393040742 0.1233766152989189 0.8690013011960178 F F F
0.5000560448508032 0.9999764597782111 0.7491554698254296 F F F
0.6242453636957379 0.1249716500314463 0.7500501111925101 F F F
0.6248406280705237 0.0002651126826727 0.8742594545329756 F F F
0.4977255279072608 0.1252437265146968 0.8763853539863576 F F F
0.7497758658393695 0.9998266561994460 0.7493013317560432 F F F
0.8747240852566598 0.1248994284222675 0.7493697004498596 F F F
0.8747469274913144 0.9998787158855035 0.8741354537233927 F F F
0.7497676543838484 0.1248853092264557 0.8738850082835808 F F F
0.0007846859951648 0.2500690056828913 0.7498525357761898 F F F
0.1249391193521685 0.3750876053526417 0.7484789473148240 F F F
0.1271596308069878 0.2498752323640469 0.8761081077235279 F F F
0.9999629415327711 0.3749677701337619 0.8738150713163837 F F F
0.2496636655024944 0.2503703549500390 0.7477281909417036 F F F
0.3750812245235058 0.3758621638753161 0.7480852447056282 F F F
0.3766466188554153 0.2515575762523519 0.8689695816335089 F F F
0.2501570660074591 0.3728865377457761 0.8760702879202671 F F F
0.5010612078275565 0.2503025312367317 0.7482816820010110 F F F
0.6254553202113259 0.3756298373808112 0.7492702505768418 F F F
0.6245411565916857 0.2501738789169545 0.8744550457917734 F F F
0.5000394475181194 0.3755352470526142 0.8752414399701546 F F F
0.7498749373045577 0.2500225888409362 0.7490785244986425 F F F
0.8750426953818758 0.3752804309771919 0.7484977743456918 F F F
0.8745465051330203 0.2499540509809747 0.8736842225463733 F F F
0.7500008489823696 0.3753058629984783 0.8733373360195055 F F F
0.9997044134056886 0.5003366686083160 0.7483443096749780 F F F
0.0001026052516154 0.4999319096460448 0.4991150891867913 F F F
0.1251926291232983 0.3748274098615773 0.4988859145768021 F F F
0.9999771348660529 0.2499256398942543 0.4989357094632166 F F F
0.5002583834580704 0.9998051890411082 0.4993101787149053 F F F
0.5001597343418482 0.5003147482178468 0.2491797665872078 F F F
0.2495635169264556 0.4990430632430470 0.2473485487940164 F F F
0.5002705092535781 0.3750787280599476 0.3735600487677050 F F F
0.3754300306698786 0.2500822731077827 0.3742665072017318 F F F
0.3757794532217687 0.3760804568431830 0.2505582729729777 F F F
0.2501628043079691 0.2498746291446289 0.2506159140024849 F F F
0.1240903111199253 0.3759448262641705 0.2494641424457281 F F F
0.0009883862513217 0.2504665931688264 0.2474673271168360 F F F
0.5006132172382645 0.1245742025236755 0.3742455978847401 F F F
0.2499395217536110 0.1246015887457394 0.3742694118425086 F F F
0.3754704917079786 0.9994350112062143 0.3741802759969753 F F F
0.1249607959917801 0.9997584969817559 0.3735548936290983 F F F
0.1239613818885533 0.1242517580353180 0.2505981957104275 F F F
0.9997436490369956 0.9998792256505162 0.2492528089399928 F F F
0.4991888484049313 0.4998698178405573 0.9990183512820292 F F F
0.1245691163575622 0.5005949505359857 0.1246987664329895 F F F
0.4961338923760619 0.2471956075801443 0.9997539714096356 F F F
0.3718696588939647 0.3711056916375704 0.9996229220644207 F F F
0.2500969580749705 0.5000384952020108 0.4988069807207525 F F F
0.9994434245197094 0.3754777494748883 0.1247582558782818 F F F
0.4975398522710016 0.1248052058061322 0.1222579418763589 F F F
0.3752465946575721 0.0025146738913982 0.1222060303138902 F F F
0.3118177560709813 0.1881906280651915 0.0001302121945956 T T T
0.2528730164878540 0.0039159700892107 0.9997117414568666 F F F
0.1289588629000018 0.1281746695046035 0.9996781443356320 F F F
0.0001758190317471 0.0008392414565015 0.9991034687304358 F F F
