#comment
1.0
16.184 0.0 0.0 
0.0 16.184 0.0 
0.0 0.0 16.184 
Al Mg 
237 18 
selective
Direct
0.0004275415014840 0.9997483458473280 0.4977294291871048 F F F
0.1232996885709710 0.1284056010326738 0.0062164842637685 F F F
0.1217875705197683 0.0025254567645998 0.1240049496662405 F F F
0.0037892705006104 0.1331537474256659 0.1396416613014299 F F F
0.8723096634430056 0.7450555328226517 0.8731866801537566 F F F
0.3797779474349746 0.1278504339776160 0.0020672448265539 F F F
0.3792400721781068 0.0014762132997277 0.1281296865804276 F F F
0.2524062536568573 0.1277337997711622 0.1284342472255894 F F F
0.5010830923783676 0.0000475496882486 0.0005692976960125 F F F
0.6237929783251013 0.1263049724211916 0.0014584867794812 F F F
0.6231840130933192 0.0001930032848113 0.1265720339907005 F F F
0.5010615556988739 0.1265382430519437 0.1266474947027973 F F F
0.7469993356004156 0.9987549863821916 0.0027714803123403 F F F
0.7465325576777893 0.7463563517862216 0.7480580647182786 F F F
0.5011296691558070 0.8737253018510636 0.8736043041211129 F F F
0.7482754336298699 0.1281708352031864 0.1238933290518001 F F F
0.6231783451282250 0.7481231990977910 0.8745815658847905 F F F
0.1259177908909999 0.3790990065044783 0.0027632340367585 F F F
0.1276780313404686 0.2543942362464938 0.1285651618491611 F F F
0.9994727139431351 0.3773987784552615 0.1280050678246898 F F F
0.2527689851646959 0.2532066470791827 0.0035795726785935 F F F
0.3770937377306581 0.3762811004357737 0.0007675851405632 F F F
0.3767233585637806 0.2518903182321161 0.1269920894499716 F F F
0.2518889723280475 0.3768432163270989 0.1267684634802311 F F F
0.5013162143302805 0.2515767287535178 0.0007023233292362 F F F
0.6247698995548989 0.3755149156533678 0.0006274018832358 F F F
0.6240860108512654 0.2515532436534483 0.1263079716017828 F F F
0.5004968150905660 0.3756472270646697 0.1261390374844063 F F F
0.7512886742942387 0.2533868729789484 0.0025571421523967 F F F
0.8721584578818657 0.3788215086717702 0.0016958718597739 F F F
0.8718368589926042 0.2504300616292809 0.1289700494993437 F F F
0.7481553035732690 0.3763878708445819 0.1270948789383124 F F F
0.9991857391786828 0.5001818990327515 0.0003535799123794 F F F
0.1272741184509345 0.6203109268778075 0.9986710899055447 F F F
0.1261703783665907 0.5002520975728871 0.1268453820329662 F F F
0.9984847258306049 0.6201374096427971 0.1275345151604624 F F F
0.2520331479897478 0.4998187409713222 0.0002894203540994 F F F
0.3765029080943680 0.6237043138072780 0.9999182758202803 F F F
0.3764565769093672 0.4995196752661783 0.1263336756656991 F F F
0.2532104985309298 0.6226045623259415 0.1260612678119543 F F F
0.5002529238697441 0.4999553062103750 0.0002706954441886 F F F
0.6239570146714413 0.6242957788971040 0.0006279910418956 F F F
0.6240497264070154 0.4995356833368439 0.1259206812938737 F F F
0.5000563178880728 0.6236316739617356 0.1261384308146027 F F F
0.7479703044929487 0.5000854748631915 0.0004181822076276 F F F
0.8717904811243279 0.6218142919160645 0.0000805207192437 F F F
0.8728820781703648 0.4995696145130207 0.1270303014727901 F F F
0.7476452256245841 0.6231441949516419 0.1261724909128008 F F F
0.6235867351421148 0.8733245964461069 0.7485111660157810 F F F
0.1221867703134144 0.8731498560686161 0.9990874305054017 F F F
0.5000547531911331 0.7485334956673854 0.7488000588699046 F F F
0.0026226860138166 0.8750652054454219 0.1280558357791768 F F F
0.2515467339037167 0.7476351511815783 0.9976644048987221 F F F
0.3793614412098567 0.8725451120408138 0.9989060361847025 F F F
0.3771615057238793 0.7472182296051944 0.1262855864028258 F F F
0.2524950636641464 0.8719524659593533 0.8726312477280074 F F F
0.5004604639068237 0.7483906263371036 0.0001300653247600 F F F
0.6229418410166333 0.8737685632325601 0.0002644145315086 F F F
0.6227100146234810 0.7481760581119111 0.1258078708337484 F F F
0.5002588176874595 0.8739353282057681 0.1263479664912467 F F F
0.7477665197788886 0.7477352827031956 0.0000699262737459 F F F
0.3764419974069388 0.7480671608090501 0.8737549070671814 F F F
0.8719815503536946 0.7454630711501687 0.1266357410419009 F F F
0.7431684809419902 0.8708064637236926 0.1269375283519400 F F F
0.3767912599217030 0.8732079288174692 0.7486652388896711 F F F
0.1295080443170628 0.1284507789089953 0.2548950600359018 F F F
0.1287102327062166 0.0006600227518653 0.3789844720064843 F F F
0.0007498102588439 0.1286236325569304 0.3784881967515761 F F F
0.2506501937670021 0.0017074766220075 0.2517666182916692 F F F
0.3762066623429179 0.1264987030500203 0.2516348296597243 F F F
0.3761742359950682 0.0001800813794652 0.3757364141769389 F F F
0.2525988947150325 0.1263256623012356 0.3767001188962649 F F F
0.5007513204397671 0.0002373424655399 0.2515734838477821 F F F
0.6240943133163901 0.1268428350031449 0.2506884353935542 F F F
0.6221419008869222 0.0000199695135808 0.3771035731913940 F F F
0.5002278437345099 0.1261143643864031 0.3749650180605942 F F F
0.7426936201490280 0.0004897640483923 0.2558628664652457 F F F
0.8722726335367628 0.1298005740455572 0.2562561740093579 F F F
0.8720020053379169 0.0010435404020332 0.3779681363755633 F F F
0.7475671213758732 0.1268921894294473 0.3765673155505443 F F F
0.0000462501001293 0.2552935093276692 0.2546828063730554 F F F
0.1263139810329132 0.3767643206723880 0.2519734146737406 F F F
0.1266745529412313 0.2519529321817701 0.3763902026903831 F F F
0.9997654171276088 0.3772078984563588 0.3768367541483518 F F F
0.2520823077588499 0.2524332274590906 0.2520272291544821 F F F
0.3758976757976329 0.3758310683080657 0.2511783689946506 F F F
0.3762425634332467 0.2515645662836556 0.3755442869590612 F F F
0.2512974860689892 0.3760411385956089 0.3755698726684059 F F F
0.5002004063629057 0.2513456128394162 0.2510166750362946 F F F
0.6237949659808888 0.3758301682027254 0.2509709451486014 F F F
0.6238233787512204 0.2512832694443882 0.3750579622877897 F F F
0.5000883102807914 0.3755797626799210 0.3753955535545163 F F F
0.7474271153056180 0.2522127260807458 0.2520821485991791 F F F
0.8734473399927964 0.3757643651876268 0.2509871953981591 F F F
0.8736104706132779 0.2527647746366468 0.3770384739710604 F F F
0.7485464780273623 0.3760430608877667 0.3752830793349760 F F F
0.9994258100144194 0.4994200152081605 0.2519250595136474 F F F
0.1264073971463863 0.6218252827245293 0.2534811855643708 F F F
0.1263783863030057 0.5000183750164247 0.3762212359248519 F F F
0.9998166693416251 0.6232543948736721 0.3762463973039748 F F F
0.2519145607387027 0.4997130316517914 0.2515947505502791 F F F
0.3762456636187275 0.6235534679255609 0.2514887082350232 F F F
0.3758281419768643 0.4998759808945977 0.3756877960359646 F F F
0.2516021042953956 0.6238155048767412 0.3761279726302537 F F F
0.5000890792661767 0.4995685951466107 0.2512593435199001 F F F
0.6233987224999020 0.6237888831010373 0.2507512383805536 F F F
0.6243239746865654 0.4997956241032944 0.3752396779709745 F F F
0.4999302738830214 0.6244971768102044 0.3753539210097752 F F F
0.7484577409151214 0.4998599557539898 0.2512102722605884 F F F
0.8733024559217601 0.6237061893142306 0.2515462194913342 F F F
0.8733740183380597 0.4999558285169082 0.3751881990952999 F F F
0.7480682753566881 0.6236824764782505 0.3757739818139790 F F F
0.9996798936230675 0.7462225965849937 0.2528518899178827 F F F
0.1270370063067295 0.8732981570998464 0.2564396787176169 F F F
0.1266197760743490 0.7475948447932932 0.3761897462033715 F F F
0.0012340151900614 0.8716478385494746 0.3798730066336417 F F F
0.2535067198118292 0.7468974491768861 0.2540904059535413 F F F
0.3776501300585999 0.8742110806154707 0.2527922198045902 F F F
0.3764485052491174 0.7485511883198355 0.3764226334775430 F F F
0.2527028601471998 0.8740330563667916 0.3763528475334336 F F F
0.5001163578947824 0.7486350523571771 0.2511965294887203 F F F
0.6227297892340924 0.8731065460075493 0.2516570660806353 F F F
0.6233273510206273 0.7486243988573263 0.3757266520606558 F F F
0.4999743455575406 0.8737634750057660 0.3762266755051240 F F F
0.7456733591002012 0.7459793596842869 0.2521502732926044 F F F
0.2520603544580414 0.7476665733689045 0.7477898646812806 F F F
0.8734538087484113 0.7457685886430281 0.3783456054242870 F F F
0.7460731431819846 0.8730039220530696 0.3781296897576342 F F F
0.7451464484424067 0.8722745672021656 0.8741620594445345 F F F
0.1272360955068842 0.1263854167570818 0.5000106183564770 F F F
0.1270266264532112 0.9970596978629093 0.6196517746200039 F F F
0.9995760128578632 0.1262387735408427 0.6180574724313294 F F F
0.2528281576745968 0.9994927335834222 0.4997057110750711 F F F
0.3772724824251866 0.1260979233626496 0.4994659314137629 F F F
0.3771434992071082 0.9995114958839166 0.6238605532678396 F F F
0.2548410631655019 0.1256915035770936 0.6209715017752060 F F F
0.4993585726360517 0.9998695608910823 0.4999344753968193 F F F
0.6232662173155612 0.1261410977797326 0.4990325314329785 F F F
0.6226249355562914 0.9998810819961981 0.6230784549050845 F F F
0.5008760622804144 0.1260649299264179 0.6244451415760301 F F F
0.7472336442868911 0.0000182479653289 0.4991269350324862 F F F
0.8729563076822900 0.1266694893777980 0.4993539265160061 F F F
0.8727674862218989 0.9986266522114512 0.6183307363603644 F F F
0.7458636406684275 0.1260896027803273 0.6210898789246332 F F F
0.9999937035105395 0.2525402907623372 0.4989615560743067 F F F
0.1263435689758846 0.3767989731897999 0.4992445232314426 F F F
0.1267442876446988 0.2539289687105817 0.6202512496573068 F F F
0.9997068270046425 0.3786670721445845 0.6214990517909988 F F F
0.2521462038399173 0.2516610185640567 0.4991526298146706 F F F
0.3756472659932444 0.3757559331102523 0.4998673221107510 F F F
0.3772665033976987 0.2516856378649746 0.6231940111211944 F F F
0.2519522819565135 0.3768885138500097 0.6231196633896409 F F F
0.5003436967956403 0.2512944532890308 0.4996679986264019 F F F
0.6241178318748161 0.3756600318179273 0.4998980181755305 F F F
0.6236813773066402 0.2512968697975637 0.6241855334246482 F F F
0.5001609780032970 0.3758828347893384 0.6243411964644258 F F F
0.7478886749899223 0.2518640382690913 0.4990231931630255 F F F
0.8734469827214152 0.3769716468062045 0.4994569648310923 F F F
0.8727490665869060 0.2540890564685527 0.6203848305522146 F F F
0.7482530350541572 0.3764975564323619 0.6240274882912067 F F F
0.9999040864517759 0.5008670615058627 0.4994060959660040 F F F
0.1266098140096350 0.6242021171949451 0.4996338735714987 F F F
0.1262827945839402 0.5006073079392791 0.6232745414391445 F F F
0.0003192764863922 0.6233679726797206 0.6234290493528700 F F F
0.2518029403838757 0.5000069226159446 0.4998098390448446 F F F
0.3755757719203824 0.6244189505210823 0.5001143619158779 F F F
0.3758763054441431 0.5001478165649533 0.6244645269190968 F F F
0.2513066566515059 0.6243005257571529 0.6237414392090150 F F F
0.5000797607715509 0.4999704807693349 0.5001199213555916 F F F
0.6237867258550132 0.6243624647898564 0.4998917190525598 F F F
0.6242156724783348 0.4999910871429081 0.6243944725802547 F F F
0.4998166601293313 0.6244946730187944 0.6243648100692469 F F F
0.7483170719471207 0.4998651019197757 0.4998756538267711 F F F
0.8736183223304823 0.6229127303888123 0.4997216933699976 F F F
0.8734561961782852 0.5004306445674532 0.6237459427744957 F F F
0.7482689802428807 0.6236553962799947 0.6237043510877267 F F F
0.0005084297288197 0.7471389902110535 0.4997734903795090 F F F
0.1271548296118664 0.8727350496821895 0.4996488632355119 F F F
0.1263999654537352 0.7481647094950314 0.6237966226796819 F F F
0.0013500869849911 0.8717173385212114 0.6200002446865871 F F F
0.2515928585466745 0.7486460514896262 0.4997643612246601 F F F
0.3760619178569219 0.8736422164072931 0.5002849708764259 F F F
0.3758838163558936 0.7487072257311506 0.6241310698127679 F F F
0.2522069718692330 0.8728998107422317 0.6233642105363257 F F F
0.5000099377195955 0.7489103511038084 0.5003368705128666 F F F
0.6229819112360021 0.8737766447885671 0.5002067777754866 F F F
0.6236382880996317 0.7487129313887941 0.6241784422450851 F F F
0.4998717553000085 0.8737780540300699 0.6244284230580313 F F F
0.7477921230700968 0.7477319831641160 0.5000089111701759 F F F
0.8732633663696689 0.8729930418293520 0.4995535406824224 F F F
0.8739605869174083 0.7458800985001379 0.6211288189849027 F F F
0.7464923707415286 0.8731454640172961 0.6215664810019784 F F F
0.0003843489902049 0.9954389093121990 0.7403607885529008 F F F
0.0001118176890079 0.8700609089469329 0.8694868912968479 F F F
0.1278874887882830 0.7465084546705218 0.8721096151621850 F F F
0.1268154850925198 0.8717016419239033 0.7460868977358490 F F F
0.2537735461407376 0.9965252377301207 0.7466341693051901 F F F
0.3783859441872819 0.1259905290676530 0.7472924409383701 F F F
0.3794053238094318 0.9986246308713032 0.8729152796489533 F F F
0.0013512335638814 0.7458660711631846 0.7477142706943278 F F F
0.5012802363078475 0.9997724756662359 0.7487908344287376 F F F
0.6250571146153313 0.1260901934662967 0.7500710543367473 F F F
0.6233841993476350 0.9996014732577618 0.8750002207595917 F F F
0.5011913914098866 0.1261598762613067 0.8742764011223609 F F F
0.7444377206510383 0.9985757350567580 0.7457322078723940 F F F
0.7475833662127729 0.6233759905938790 0.8742184705697031 F F F
0.8720041298350176 0.9925309746219690 0.8618809908572862 F F F
0.8730091925835374 0.5007463747768208 0.8736976611167486 F F F
0.9991177306822911 0.2587361899379956 0.7416237265033451 F F F
0.1268433401381710 0.3791984225234029 0.7461434369031916 F F F
0.8738443104524938 0.6239825282717705 0.7482675578981739 F F F
0.9983572273756836 0.3799162980142486 0.8738019253823521 F F F
0.2549007476614528 0.2544940358739253 0.7454093869343132 F F F
0.3769806527297147 0.3765152156053432 0.7487909796177875 F F F
0.3783137497852694 0.2533513882638428 0.8746149269150684 F F F
0.2540043240501298 0.3781133511295958 0.8748140445177142 F F F
0.5010091372296300 0.2513868282093637 0.7492615602324988 F F F
0.6237409483147365 0.3764177233683837 0.7489155411138894 F F F
0.6245246605968502 0.2515086188394959 0.8753480748245553 F F F
0.5010322915908605 0.3760500684862890 0.8744736795743374 F F F
0.7465469045526560 0.2537042925586461 0.7476628615905407 F F F
0.8730521487191923 0.3782831940500095 0.7478329280178498 F F F
0.8721059613216608 0.2591703989087321 0.8721128913100391 F F F
0.7472948985007701 0.3779189996314580 0.8744380868943528 F F F
0.9996514363442709 0.5005158252745896 0.7481787906627311 F F F
0.1266784345440685 0.6232967993775534 0.7482501088619736 F F F
0.1266834914737130 0.4993834571713026 0.8735397416163426 F F F
0.0002034910634318 0.6213308948562397 0.8722716715830240 F F F
0.2521666383864410 0.5007485682192574 0.7484661745335556 F F F
0.3758644672769633 0.6242971636982503 0.7485217162246887 F F F
0.3766816961967670 0.5007215290888922 0.8740846259080025 F F F
0.2516550623627038 0.6234269206578060 0.8738420159553988 F F F
0.5002778941858236 0.5003872254177439 0.7489017010861617 F F F
0.6234450336186348 0.6240998372643549 0.7488169433273190 F F F
0.6237166135767988 0.5006652148277895 0.8745778329382321 F F F
0.5000684234207734 0.6244651665958993 0.8742462792530600 F F F
0.7483469731335052 0.5005159557414706 0.7488430651402000 F F F
0.1273662845572998 0.2568986778392027 0.8739891187908836 F F F
0.7558190570844719 0.1256700766143731 0.8807968996299435 F F F
0.8717469746579186 0.1262493569994323 0.7415198052096634 F F F
0.2540274977143137 0.1270516072382775 0.8740855212733689 F F F
0.9985577933298942 0.1315381509518679 0.8610433046249008 F F F
0.1195435907146354 0.9983095146427707 0.8769545540801725 F F F
0.1277927430826515 0.1258789105049589 0.7402654781313662 F F F
0.8720541116039014 0.8696194661909518 0.2551107218161372 F F F
0.0027626242007462 0.0009150954790544 0.2563720754657793 F F F
0.8760336897538827 0.8777169054064534 0.9995991147827623 F F F
0.2525071009276184 0.8740331731422925 0.1277236775171990 F F F
0.1263552752634840 0.7455524653990958 0.1274973901175780 F F F
0.9992587805938853 0.7453933621382502 0.9990123946066546 F F F
0.9942977911188139 0.2500007692588663 0.0032866694694696 F F F
0.8672575357518995 0.9991812946488066 0.1384763815303462 F F F
0.9359294378432815 0.0643647341291547 0.0010524217666772 T T T
0.8727361150969414 0.8697293627784330 0.7440483290378503 F F F
0.2526164398932818 0.0001391108859834 0.0015477058153836 F F F
